*SPEF "IEEE 1481.1999"
*DESIGN "Display_optimized_auto_SPI"
*DATE "01:20:47 Friday June 05, 2026"
*VENDOR "unknown"
*PROGRAM "qrouter"
*VERSION "unknown"
*DESIGN_FLOW "qflow"
*DIVIDER /
*DELIMITER :
*BUS_DELIMITER <>
*T_UNIT 1 PS
*C_UNIT 1 FF
*R_UNIT 1 OHM
*L_UNIT 1 HENRY

*NAME_MAP
*1 \SPI_MOSI_state_mosi\[3]
*2 _1010_
*3 _932_
*4 _944_
*5 _942_
*6 _967_
*7 _940_
*8 _928_
*9 _908_
*10 _926_
*11 _989_
*12 _969_
*13 _998_
*14 _1001_
*15 _1006_
*16 _985_
*17 _892_
*18 _993_
*19 INITIAL_EN_HEAD_TO_AUTO
*20 _1031_
*21 _1034_
*22 _1072_
*23 _1062_
*24 _1867_
*25 _1087_
*26 _1086_
*27 _1089_
*28 _1084_
*29 _1085_
*30 _1090_
*31 _1083_
*32 _1088_
*33 _1069_
*34 _1077_
*35 _1076_
*36 _899_
*37 _267_
*38 _1214_
*39 _1265_
*40 _1281_
*41 _1295_
*42 _1233_
*43 _1215_
*44 _1309_
*45 _1337_
*46 _1323_
*47 _1350_
*48 _1390_
*49 _1396_
*50 _1430_
*51 _1417_
*52 _1443_
*53 _1378_
*54 _1364_
*55 _256_
*56 _1202_
*57 _1415_
*58 _1402_
*59 _1376_
*60 _1390_
*61 _1337_
*62 _1323_
*63 _1350_
*64 _1364_
*65 _1309_
*66 _1268_
*67 _1203_
*68 _1221_
*69 _1233_
*70 _1281_
*71 _1293_
*72 system_clk_bF_buf1
*73 CLKBUF1_insert12
*74 _1514_
*75 _1518_
*76 _1513_
*77 _1517_
*78 _1519_
*79 _1528_
*80 _1496_
*81 _1497_
*82 _1493_
*83 _1494_
*84 _1495_
*85 system_clk_bF_buf2
*86 CLKBUF1_insert11
*87 _1983_
*88 _1981_
*89 _1982_
*90 _1015_
*91 _1022_
*92 _1021_
*93 _1012_
*94 _1011_
*95 _1010_
*96 _1627_
*97 _1023_
*98 system_clk_bF_buf3
*99 CLKBUF1_insert10
*100 _1025_
*101 _1024_
*102 _1994_
*103 _1989_
*104 _1964_
*105 _1968_
*106 _1963_
*107 _1990_
*108 _1019_
*109 _1995_
*110 _1991_
*111 system_clk_bF_buf4
*112 CLKBUF1_insert9
*113 _1512_
*114 _1527_
*115 _1498_
*116 _1500_
*117 _1526_
*118 _1502_
*119 _1505_
*120 _1504_
*121 _1499_
*122 _1501_
*123 _1503_
*124 system_clk_bF_buf5
*125 CLKBUF1_insert8
*126 _1509_
*127 _1027_
*128 _1026_
*129 _1634_
*130 _1628_
*131 _1629_
*132 _1633_
*133 _1508_
*134 _1630_
*135 _1506_
*136 _1507_
*137 system_clk_bF_buf6
*138 CLKBUF1_insert7
*139 _1985_
*140 _1987_
*141 _1986_
*142 _1984_
*143 _1980_
*144 _2000_
*145 _1979_
*146 _1978_
*147 _1999_
*148 _1997_
*149 _1998_
*150 system_clk_bF_buf7
*151 CLKBUF1_insert6
*152 _1530_
*153 _1523_
*154 _1520_
*155 _1525_
*156 _1521_
*157 _1516_
*158 _1515_
*159 _1522_
*160 _1529_
*161 _1531_
*162 _1524_
*163 system_clk_bF_buf8
*164 CLKBUF1_insert5
*165 _1009_
*166 _1013_
*167 _1016_
*168 _1018_
*169 _1017_
*170 _1008_
*171 _1007_
*172 _1020_
*173 _1014_
*174 _1511_
*175 _1510_
*176 system_clk_bF_buf9
*177 CLKBUF1_insert4
*178 _1544_
*179 _1632_
*180 _1631_
*181 _1992_
*182 _1993_
*183 _1965_
*184 _1961_
*185 _1966_
*186 _1988_
*187 _1962_
*188 _1967_
*189 \SPI_MOSI_state_mosi\[2]
*190 _1009_
*191 _910_
*192 _982_
*193 _956_
*194 _962_
*195 _936_
*196 _968_
*197 _976_
*198 _943_
*199 _950_
*200 _940_
*201 _906_
*202 _1_
*203 _1082_
*204 _924_
*205 _919_
*206 _897_
*207 _1546_
*208 _1621_
*209 _887_
*210 _980_
*211 _930_
*212 _973_
*213 _941_
*214 _966_
*215 _169_
*216 _1099_
*217 _1190_
*218 _1194_
*219 _1197_
*220 _1173_
*221 _1178_
*222 _1182_
*223 _1186_
*224 _1165_
*225 _1102_
*226 _1155_
*227 _1479_
*228 system_clk
*229 CLKBUF1_insert12
*230 CLKBUF1_insert6
*231 CLKBUF1_insert9
*232 CLKBUF1_insert5
*233 CLKBUF1_insert8
*234 CLKBUF1_insert4
*235 CLKBUF1_insert10
*236 CLKBUF1_insert13
*237 CLKBUF1_insert11
*238 CLKBUF1_insert7
*239 system_clk_bF_buf0
*240 CLKBUF1_insert13
*241 _1971_
*242 _1972_
*243 _1970_
*244 _1973_
*245 _1975_
*246 _1977_
*247 _1976_
*248 _1996_
*249 _1969_
*250 _1974_
*251 _86_
*252 _897_
*253 _1004_
*254 _898_
*255 _914_
*256 _912_
*257 _991_
*258 _946_
*259 _928_
*260 _971_
*261 _995_
*262 _999_
*263 \u_SPI_HEAD_MOSI_REF_INST_state\[1]
*264 _1530_
*265 _1035_
*266 _1038_
*267 _1477_
*268 _1030_
*269 _1081_
*270 _1091_
*271 _1032_
*272 _1469_
*273 _1470_
*274 _1471_
*275 \SPI_MOSI_state_mosi\[1]
*276 _1008_
*277 _940_
*278 _909_
*279 _956_
*280 _962_
*281 _943_
*282 _976_
*283 _968_
*284 _950_
*285 _906_
*286 \u_SPI_HEAD_MOSI_REF_INST_state\[2]
*287 _1531_
*288 _1209_
*289 _1092_
*290 _1475_
*291 _1078_
*292 _1028_
*293 _1465_
*294 _1466_
*295 _1041_
*296 _1056_
*297 \u_SPI_HEAD_MOSI_REF_reset_hw_and_sleep_out_counter\[0]
*298 _1493_
*299 _1210_
*300 _1216_
*301 _1207_
*302 _1116_
*303 _1200_
*304 _1199_
*305 _1204_
*306 _1205_
*307 _1227_
*308 _632_
*309 _1654_
*310 _1896_
*311 _1656_
*312 _1949_
*313 _1954_
*314 _1932_
*315 _1936_
*316 _1958_
*317 _1909_
*318 _1940_
*319 _638_
*320 _1660_
*321 _1661_
*322 _1687_
*323 _1691_
*324 _1720_
*325 _1710_
*326 _1671_
*327 _1695_
*328 _1705_
*329 _1679_
*330 _81_
*331 _892_
*332 _893_
*333 _977_
*334 _951_
*335 _957_
*336 _963_
*337 _992_
*338 _999_
*339 _995_
*340 _997_
*341 reset_bF_buf3
*342 BUFX2_insert51
*343 _1434_
*344 _921_
*345 _1447_
*346 _1461_
*347 _1487_
*348 _1467_
*349 _1170_
*350 _1161_
*351 reset_bF_buf4
*352 BUFX2_insert50
*353 _897_
*354 _1421_
*355 _1409_
*356 _1382_
*357 _1394_
*358 _1327_
*359 _1368_
*360 _1354_
*361 reset_bF_buf5
*362 BUFX2_insert49
*363 _1694_
*364 _1725_
*365 _1668_
*366 _972_
*367 _1719_
*368 _1703_
*369 _1543_
*370 _1751_
*371 reset_bF_buf6
*372 BUFX2_insert48
*373 _1156_
*374 _1143_
*375 _1099_
*376 _1249_
*377 _1259_
*378 _1211_
*379 _1225_
*380 _1237_
*381 _195_
*382 _1126_
*383 _1332_
*384 _1339_
*385 _1132_
*386 _1283_
*387 _1276_
*388 _1127_
*389 _1199_
*390 _1207_
*391 _198_
*392 _1130_
*393 _1204_
*394 _1201_
*395 _1221_
*396 _1268_
*397 _1278_
*398 _1131_
*399 _1406_
*400 _1334_
*401 _5_
*402 _1643_
*403 _891_
*404 _1785_
*405 _1744_
*406 _1773_
*407 _1749_
*408 _1750_
*409 _1777_
*410 _1868_
*411 _644_
*412 _1666_
*413 _1724_
*414 _1718_
*415 _1707_
*416 _1675_
*417 _1679_
*418 _1693_
*419 _1895_
*420 _1667_
*421 _838_
*422 _1904_
*423 _1947_
*424 _1956_
*425 _1944_
*426 _1938_
*427 _1905_
*428 _1952_
*429 _1934_
*430 _1930_
*431 _841_
*432 _1907_
*433 _1948_
*434 _1953_
*435 _1908_
*436 _1939_
*437 _1957_
*438 _1935_
*439 _1943_
*440 _1931_
*441 _861_
*442 _1927_
*443 _1937_
*444 _1959_
*445 _1928_
*446 _1955_
*447 _1941_
*448 _1950_
*449 _1945_
*450 _1933_
*451 reset
*452 BUFX2_insert53
*453 BUFX2_insert51
*454 BUFX2_insert50
*455 BUFX2_insert52
*456 BUFX2_insert48
*457 BUFX2_insert54
*458 BUFX2_insert49
*459 reset_bF_buf0
*460 BUFX2_insert54
*461 _979_
*462 _988_
*463 _947_
*464 _939_
*465 _953_
*466 _959_
*467 _965_
*468 reset_bF_buf1
*469 BUFX2_insert53
*470 _1829_
*471 _1814_
*472 _1820_
*473 _1789_
*474 _1747_
*475 _1835_
*476 _1841_
*477 reset_bF_buf2
*478 BUFX2_insert52
*479 _1128_
*480 _1270_
*481 _1299_
*482 _1133_
*483 _1341_
*484 _1313_
*485 _1285_
*486 _197__bF_buf1
*487 BUFX2_insert17
*488 _1387_
*489 _1360_
*490 _1374_
*491 _1347_
*492 _1346_
*493 _1375_
*494 _1361_
*495 _197__bF_buf2
*496 BUFX2_insert16
*497 _1292_
*498 _1229_
*499 _1230_
*500 _1199_
*501 _1200_
*502 _1220_
*503 _1219_
*504 _197__bF_buf3
*505 BUFX2_insert15
*506 _1386_
*507 _1440_
*508 _1427_
*509 _1413_
*510 _1414_
*511 _1439_
*512 _1426_
*513 _197__bF_buf4
*514 BUFX2_insert14
*515 _1133_
*516 _1306_
*517 _1305_
*518 _1333_
*519 _1332_
*520 _1320_
*521 _1319_
*522 \u_SPI_HEAD_MOSI_REF_done_counter\[2]
*523 _1522_
*524 _1047_
*525 _1079_
*526 _1066_
*527 _1165_
*528 _1463_
*529 _1094_
*530 _1044_
*531 _133_
*532 _1044_
*533 _1071_
*534 _1045_
*535 _1478_
*536 _1052_
*537 _1061_
*538 _1164_
*539 _1167_
*540 _171_
*541 _1101_
*542 _1162_
*543 _1160_
*544 _1159_
*545 _1462_
*546 _1157_
*547 _1156_
*548 _1102_
*549 _174_
*550 _1105_
*551 _1469_
*552 _1239_
*553 _1127_
*554 _1442_
*555 _1429_
*556 _1202_
*557 _1456_
*558 \u_SPI_HEAD_MOSI_REF_reset_hw_and_sleep_out_counter\[6]
*559 _1499_
*560 _1272_
*561 _1288_
*562 _1277_
*563 _1280_
*564 _1273_
*565 _1113_
*566 _1284_
*567 \u_SPI_HEAD_MOSI_REF_reset_hw_and_sleep_out_counter\[2]
*568 _1495_
*569 _1236_
*570 _1226_
*571 _1229_
*572 _1232_
*573 _1115_
*574 _1227_
*575 _1262_
*576 \u_SPI_HEAD_MOSI_REF_reset_hw_and_sleep_out_counter\[1]
*577 _1494_
*578 _1212_
*579 _1216_
*580 _1116_
*581 _1220_
*582 _1224_
*583 _1227_
*584 _1218_
*585 \u_SPI_HEAD_MOSI_REF_reset_hw_and_sleep_out_counter\[19]
*586 _1512_
*587 _1452_
*588 _1460_
*589 _1456_
*590 _1448_
*591 _1450_
*592 _1122_
*593 _1454_
*594 \u_SPI_HEAD_MOSI_REF_reset_hw_and_sleep_out_counter\[10]
*595 _1503_
*596 _1336_
*597 _1328_
*598 _1340_
*599 _1148_
*600 _1333_
*601 _1329_
*602 _1124_
*603 \u_SPI_HEAD_MOSI_REF_reset_done\
*604 _1526_
*605 _1129_
*606 _1405_
*607 _1404_
*608 _1267_
*609 _1256_
*610 _1246_
*611 _1470_
*612 _217_
*613 _1151_
*614 _1451_
*615 _1154_
*616 _1304_
*617 _1290_
*618 _1318_
*619 _1373_
*620 _1412_
*621 MOSI_ENABLE_HEAD_TO_SPI
*622 _1490_
*623 _907_
*624 _892_
*625 _985_
*626 _931_
*627 _942_
*628 _967_
*629 _986_
*630 _598_
*631 _1601_
*632 _1617_
*633 _1604_
*634 _1620_
*635 _1602_
*636 _1608_
*637 _1615_
*638 _1610_
*639 _643_
*640 _1665_
*641 _1823_
*642 _1877_
*643 _1686_
*644 _1688_
*645 _1890_
*646 _1666_
*647 _1702_
*648 \u_auto_data_inst_done_count\[2]
*649 _1987_
*650 _1840_
*651 _1837_
*652 _1836_
*653 _1906_
*654 _1907_
*655 _1910_
*656 _1904_
*657 _844_
*658 _1910_
*659 _1950_
*660 _1941_
*661 _1933_
*662 _1955_
*663 _1928_
*664 _1959_
*665 _1937_
*666 _163__bF_buf1
*667 BUFX2_insert46
*668 _1407_
*669 _1391_
*670 _1365_
*671 _1351_
*672 _1379_
*673 _1324_
*674 _163__bF_buf2
*675 BUFX2_insert45
*676 _1282_
*677 _1269_
*678 _1296_
*679 _1234_
*680 _1222_
*681 _1206_
*682 _163__bF_buf3
*683 BUFX2_insert44
*684 _1127_
*685 _1483_
*686 _1473_
*687 _1458_
*688 _1444_
*689 _1098_
*690 _197__bF_buf0
*691 BUFX2_insert18
*692 _1452_
*693 _1453_
*694 _1244_
*695 _1276_
*696 _1277_
*697 _1291_
*698 MOSI_DONE
*699 _1012_
*700 _900_
*701 _926_
*702 _1100_
*703 _1826_
*704 _1662_
*705 _1669_
*706 _132_
*707 _1043_
*708 _1046_
*709 _1047_
*710 _1159_
*711 _1095_
*712 _1051_
*713 _1468_
*714 _145_
*715 _1058_
*716 _1468_
*717 _1096_
*718 _1156_
*719 _1157_
*720 _1159_
*721 _1059_
*722 _162_
*723 _1092_
*724 _1245_
*725 _1240_
*726 _1093_
*727 _1265_
*728 _1247_
*729 _1257_
*730 \u_SPI_HEAD_MOSI_REF_reset_hw_and_sleep_out_counter\[14]
*731 _1507_
*732 _1393_
*733 _1386_
*734 _1389_
*735 _1383_
*736 _1400_
*737 _1106_
*738 \u_SPI_HEAD_MOSI_REF_reset_hw_and_sleep_out_counter\[12]
*739 _1505_
*740 _1398_
*741 _1367_
*742 _1363_
*743 _1355_
*744 _1360_
*745 _1107_
*746 \u_SPI_HEAD_MOSI_REF_reset_hw_and_sleep_out_counter\[13]
*747 _1506_
*748 _1369_
*749 _1374_
*750 _1398_
*751 _1108_
*752 _1381_
*753 _1370_
*754 \u_SPI_HEAD_MOSI_REF_reset_hw_and_sleep_out_counter\[5]
*755 _1498_
*756 _1267_
*757 _1266_
*758 _1269_
*759 _1260_
*760 _1112_
*761 _1261_
*762 \u_SPI_HEAD_MOSI_REF_reset_hw_and_sleep_out_counter\[4]
*763 _1497_
*764 _1250_
*765 _1252_
*766 _1260_
*767 _1253_
*768 _1112_
*769 _1256_
*770 \u_SPI_HEAD_MOSI_REF_reset_hw_and_sleep_out_counter\[18]
*771 _1511_
*772 _1446_
*773 _1442_
*774 _1436_
*775 _1450_
*776 _1120_
*777 _1439_
*778 _545_
*779 _1548_
*780 _1568_
*781 _1558_
*782 _1592_
*783 _1550_
*784 _1552_
*785 _1566_
*786 \u_auto_data_inst_line_counter\[0]
*787 _1988_
*788 _1672_
*789 _1916_
*790 _1671_
*791 _1697_
*792 _1676_
*793 _1678_
*794 _696_
*795 _1727_
*796 _1779_
*797 _1729_
*798 _1783_
*799 _1957_
*800 _1787_
*801 _1778_
*802 \u_auto_data_inst_x_start_end_15_8\[2]
*803 _1971_
*804 _1731_
*805 _1774_
*806 _1760_
*807 _1756_
*808 _1755_
*809 _1757_
*810 \u_auto_data_inst_x_start_end_15_8\[10]
*811 _1979_
*812 _1793_
*813 _1741_
*814 _1796_
*815 _1934_
*816 _1795_
*817 _1794_
*818 _19_
*819 _930_
*820 _987_
*821 _938_
*822 _952_
*823 _933_
*824 _958_
*825 _964_
*826 _163__bF_buf0
*827 BUFX2_insert47
*828 _1132_
*829 _1338_
*830 _1310_
*831 _1418_
*832 _1431_
*833 _263__bF_buf2
*834 BUFX2_insert41
*835 _1420_
*836 _1393_
*837 _1408_
*838 _1367_
*839 _1381_
*840 _263__bF_buf3
*841 BUFX2_insert40
*842 _1312_
*843 _1284_
*844 _1340_
*845 _1326_
*846 _1353_
*847 \u_SPI_HEAD_MOSI_REF_sleep_out_done_bF_buf2\
*848 BUFX2_insert37
*849 _1266_
*850 _1239_
*851 _1203_
*852 _1469_
*853 _1455_
*854 \u_SPI_HEAD_MOSI_REF_sleep_out_done_bF_buf3\
*855 BUFX2_insert36
*856 _1104_
*857 _1403_
*858 _1402_
*859 _1377_
*860 _1376_
*861 _199__bF_buf3
*862 BUFX2_insert32
*863 _1452_
*864 _1244_
*865 _1258_
*866 _1248_
*867 _1470_
*868 _646_
*869 _1668_
*870 BUFX2_insert31
*871 BUFX2_insert29
*872 BUFX2_insert30
*873 BUFX2_insert28
*874 BUFX2_insert27
*875 _646__bF_buf0
*876 BUFX2_insert31
*877 _1755_
*878 _1758_
*879 _1676_
*880 _1765_
*881 _1689_
*882 _646__bF_buf1
*883 BUFX2_insert30
*884 _1708_
*885 _1844_
*886 _1682_
*887 _1847_
*888 _1850_
*889 _646__bF_buf2
*890 BUFX2_insert29
*891 _1856_
*892 _1859_
*893 _1862_
*894 _1853_
*895 _1865_
*896 _646__bF_buf3
*897 BUFX2_insert28
*898 _1810_
*899 _1806_
*900 _1867_
*901 _1797_
*902 _1793_
*903 _646__bF_buf4
*904 BUFX2_insert27
*905 _1784_
*906 _1778_
*907 _1669_
*908 _1767_
*909 _1772_
*910 _173__bF_buf0
*911 BUFX2_insert26
*912 _1388_
*913 _1389_
*914 _1335_
*915 _1336_
*916 _1321_
*917 _173__bF_buf1
*918 BUFX2_insert25
*919 _1456_
*920 _1442_
*921 _1429_
*922 _1279_
*923 _1128_
*924 _173__bF_buf2
*925 BUFX2_insert24
*926 _1322_
*927 _1348_
*928 _1363_
*929 _1362_
*930 _1349_
*931 _173__bF_buf3
*932 BUFX2_insert23
*933 _1280_
*934 _1231_
*935 _1232_
*936 _1218_
*937 _1217_
*938 _793__bF_buf2
*939 BUFX2_insert20
*940 _1851_
*941 _1854_
*942 _1866_
*943 _1888_
*944 _1899_
*945 _793__bF_buf3
*946 BUFX2_insert19
*947 _1856_
*948 _1844_
*949 _1860_
*950 _1857_
*951 _1845_
*952 _197_
*953 _1129_
*954 BUFX2_insert15
*955 BUFX2_insert14
*956 BUFX2_insert17
*957 BUFX2_insert16
*958 BUFX2_insert18
*959 _262__bF_buf3
*960 BUFX2_insert0
*961 _1243_
*962 _1433_
*963 _1446_
*964 _1312_
*965 _1284_
*966 _94_
*967 _906_
*968 _998_
*969 _989_
*970 _993_
*971 _907_
*972 _1001_
*973 _119_
*974 _1028_
*975 _1029_
*976 _1033_
*977 _1474_
*978 _1035_
*979 _1152_
*980 _120_
*981 _1029_
*982 _1101_
*983 _1030_
*984 _1082_
*985 _1486_
*986 _1489_
*987 _121_
*988 _1030_
*989 _1479_
*990 _1075_
*991 _1068_
*992 _1055_
*993 _1031_
*994 \u_SPI_HEAD_MOSI_REF_done_counter\[1]
*995 _1521_
*996 _1043_
*997 _1071_
*998 _1065_
*999 _1478_
*1000 _1059_
*1001 _175_
*1002 _1106_
*1003 _1108_
*1004 _1390_
*1005 _1423_
*1006 _1384_
*1007 _1399_
*1008 \u_SPI_HEAD_MOSI_REF_reset_hw_and_sleep_out_counter\[11]
*1009 _1504_
*1010 _1109_
*1011 _1353_
*1012 _1344_
*1013 _1349_
*1014 _1346_
*1015 _178_
*1016 _1109_
*1017 _1350_
*1018 _1397_
*1019 _1342_
*1020 _1110_
*1021 _1148_
*1022 \u_SPI_HEAD_MOSI_REF_reset_hw_and_sleep_out_counter\[9]
*1023 _1502_
*1024 _1326_
*1025 _1322_
*1026 _1110_
*1027 _1145_
*1028 _1319_
*1029 \u_SPI_HEAD_MOSI_REF_reset_hw_and_sleep_out_counter\[7]
*1030 _1500_
*1031 _1288_
*1032 _1286_
*1033 _1113_
*1034 _1291_
*1035 _1298_
*1036 \u_SPI_HEAD_MOSI_REF_reset_hw_and_sleep_out_counter\[3]
*1037 _1496_
*1038 _1241_
*1039 _1262_
*1040 _1242_
*1041 _1114_
*1042 _1246_
*1043 \u_SPI_HEAD_MOSI_REF_reset_hw_and_sleep_out_counter\[17]
*1044 _1510_
*1045 _1433_
*1046 _1429_
*1047 _1424_
*1048 _1119_
*1049 _1426_
*1050 \u_SPI_HEAD_MOSI_REF_reset_hw_and_sleep_out_counter\[16]
*1051 _1509_
*1052 _1413_
*1053 _1420_
*1054 _1410_
*1055 _1122_
*1056 _1424_
*1057 \u_SPI_HEAD_MOSI_REF_reset_hw_and_sleep_out_counter\[8]
*1058 _1501_
*1059 _1146_
*1060 _1301_
*1061 _1305_
*1062 _1312_
*1063 _1124_
*1064 _211_
*1065 _1145_
*1066 _1323_
*1067 _1147_
*1068 _1315_
*1069 _1330_
*1070 _1314_
*1071 _212_
*1072 _1146_
*1073 _1309_
*1074 _1307_
*1075 _1302_
*1076 _1147_
*1077 _1314_
*1078 _269_
*1079 _1216_
*1080 _1219_
*1081 _1217_
*1082 _1262_
*1083 _1226_
*1084 _1223_
*1085 _333_
*1086 _1286_
*1087 _1293_
*1088 _1295_
*1089 _1300_
*1090 _1302_
*1091 _1287_
*1092 _335_
*1093 _1288_
*1094 _1289_
*1095 _1331_
*1096 _1314_
*1097 _1342_
*1098 _1397_
*1099 _434_
*1100 _1395_
*1101 _1423_
*1102 _1396_
*1103 _1404_
*1104 _1399_
*1105 _1402_
*1106 _448_
*1107 _1410_
*1108 _1417_
*1109 _1422_
*1110 _1415_
*1111 _1411_
*1112 _1435_
*1113 _546_
*1114 _1549_
*1115 _1566_
*1116 _1552_
*1117 _1558_
*1118 _1592_
*1119 _1550_
*1120 \u_SPI_HEAD_MOSI_REF_sclk_gen_O_clk_counter\[0]
*1121 _1628_
*1122 _1603_
*1123 _1606_
*1124 _1578_
*1125 _1587_
*1126 _1602_
*1127 \u_SPI_HEAD_MOSI_REF_sclk_gen_O_clk_counter\[1]
*1128 _1629_
*1129 _1603_
*1130 _1579_
*1131 _1580_
*1132 _1584_
*1133 _1606_
*1134 \u_auto_data_inst_AUTO_state\[2]
*1135 _1999_
*1136 _1960_
*1137 _1643_
*1138 _1636_
*1139 _1647_
*1140 _1649_
*1141 _620_
*1142 _1641_
*1143 _1644_
*1144 _1643_
*1145 _1647_
*1146 _1649_
*1147 _1960_
*1148 _622_
*1149 _1644_
*1150 _1657_
*1151 _1646_
*1152 _1882_
*1153 _1883_
*1154 _1654_
*1155 _623_
*1156 _1645_
*1157 _1960_
*1158 _1646_
*1159 _1655_
*1160 _1881_
*1161 _1658_
*1162 _629_
*1163 _1651_
*1164 _1880_
*1165 _1869_
*1166 _1883_
*1167 _1654_
*1168 _1652_
*1169 _633_
*1170 _1655_
*1171 _1873_
*1172 _1896_
*1173 _1891_
*1174 _1656_
*1175 _1910_
*1176 _640_
*1177 _1662_
*1178 _1832_
*1179 _1825_
*1180 _1874_
*1181 _1673_
*1182 _1667_
*1183 _650_
*1184 _1673_
*1185 _1676_
*1186 _1674_
*1187 _1678_
*1188 _1715_
*1189 _1700_
*1190 \u_auto_data_inst_line_counter\[1]
*1191 _1989_
*1192 _1678_
*1193 _1679_
*1194 _1680_
*1195 _1697_
*1196 _1920_
*1197 \u_auto_data_inst_line_counter\[5]
*1198 _1993_
*1199 _1708_
*1200 _1705_
*1201 _1712_
*1202 _1919_
*1203 _1706_
*1204 \u_auto_data_inst_line_counter\[7]
*1205 _1995_
*1206 _1912_
*1207 _1721_
*1208 _1875_
*1209 _1924_
*1210 _1720_
*1211 \u_auto_data_inst_x_start_end_15_8\[0]
*1212 _1969_
*1213 _1732_
*1214 _1748_
*1215 _1753_
*1216 _1726_
*1217 _1746_
*1218 \u_auto_data_inst_x_start_end_15_8\[5]
*1219 _1974_
*1220 _1767_
*1221 _1766_
*1222 _1770_
*1223 _1728_
*1224 _1946_
*1225 \u_auto_data_inst_x_start_end_15_8\[4]
*1226 _1973_
*1227 _1761_
*1228 _1763_
*1229 _1942_
*1230 _1774_
*1231 _1728_
*1232 \u_auto_data_inst_x_start_end_15_8\[1]
*1233 _1970_
*1234 _1748_
*1235 _1732_
*1236 _1753_
*1237 _1750_
*1238 _1929_
*1239 \u_auto_data_inst_x_start_end_15_8\[12]
*1240 _1981_
*1241 _1799_
*1242 _1809_
*1243 _1805_
*1244 _1944_
*1245 _1738_
*1246 _748_
*1247 _1788_
*1248 _1797_
*1249 _1792_
*1250 _1790_
*1251 _1789_
*1252 _1815_
*1253 \u_auto_data_inst_done_count\[1]
*1254 _1986_
*1255 _1830_
*1256 _1831_
*1257 _1834_
*1258 _1838_
*1259 _1871_
*1260 _163_
*1261 _1093_
*1262 BUFX2_insert44
*1263 BUFX2_insert45
*1264 BUFX2_insert47
*1265 BUFX2_insert46
*1266 _263_
*1267 _1209_
*1268 BUFX2_insert43
*1269 BUFX2_insert40
*1270 BUFX2_insert41
*1271 BUFX2_insert42
*1272 _263__bF_buf0
*1273 BUFX2_insert43
*1274 _1298_
*1275 _1236_
*1276 _1224_
*1277 _1210_
*1278 _263__bF_buf1
*1279 BUFX2_insert42
*1280 _1460_
*1281 _1446_
*1282 _1433_
*1283 _1238_
*1284 \u_SPI_HEAD_MOSI_REF_sleep_out_done\
*1285 _1527_
*1286 BUFX2_insert37
*1287 BUFX2_insert36
*1288 BUFX2_insert39
*1289 BUFX2_insert38
*1290 \u_SPI_HEAD_MOSI_REF_sleep_out_done_bF_buf0\
*1291 BUFX2_insert39
*1292 _1428_
*1293 _1415_
*1294 _1416_
*1295 _1441_
*1296 \u_SPI_HEAD_MOSI_REF_sleep_out_done_bF_buf1\
*1297 BUFX2_insert38
*1298 _1308_
*1299 _1307_
*1300 _1293_
*1301 _1294_
*1302 _199_
*1303 _1131_
*1304 BUFX2_insert34
*1305 BUFX2_insert35
*1306 BUFX2_insert32
*1307 BUFX2_insert33
*1308 _199__bF_buf0
*1309 BUFX2_insert35
*1310 _1305_
*1311 _1132_
*1312 _1291_
*1313 _1229_
*1314 _199__bF_buf1
*1315 BUFX2_insert34
*1316 _1386_
*1317 _1426_
*1318 _1413_
*1319 _1439_
*1320 _199__bF_buf2
*1321 BUFX2_insert33
*1322 _1319_
*1323 _1360_
*1324 _1374_
*1325 _1346_
*1326 _173_
*1327 _1104_
*1328 BUFX2_insert26
*1329 BUFX2_insert24
*1330 BUFX2_insert25
*1331 BUFX2_insert23
*1332 _793_
*1333 _1843_
*1334 BUFX2_insert20
*1335 BUFX2_insert21
*1336 BUFX2_insert22
*1337 BUFX2_insert19
*1338 _793__bF_buf0
*1339 BUFX2_insert22
*1340 _1848_
*1341 _1847_
*1342 _1863_
*1343 _1850_
*1344 _793__bF_buf1
*1345 BUFX2_insert21
*1346 _1853_
*1347 _1862_
*1348 _1859_
*1349 _1865_
*1350 _262_
*1351 _1208_
*1352 BUFX2_insert0
*1353 BUFX2_insert1
*1354 BUFX2_insert3
*1355 BUFX2_insert2
*1356 _262__bF_buf0
*1357 BUFX2_insert3
*1358 _1340_
*1359 _1326_
*1360 _1353_
*1361 _1367_
*1362 _262__bF_buf1
*1363 BUFX2_insert2
*1364 _1298_
*1365 _1236_
*1366 _1224_
*1367 _1210_
*1368 _262__bF_buf2
*1369 BUFX2_insert1
*1370 _1408_
*1371 _1381_
*1372 _1420_
*1373 _1393_
*1374 _87_
*1375 _898_
*1376 _1003_
*1377 _904_
*1378 _927_
*1379 _979_
*1380 \SPI_MOSI_sclk_counter\[0]
*1381 _1022_
*1382 _990_
*1383 _894_
*1384 _994_
*1385 _989_
*1386 \u_SPI_HEAD_MOSI_REF_INST_state\[0]
*1387 _1529_
*1388 _1032_
*1389 _1037_
*1390 _1475_
*1391 _1029_
*1392 _126_
*1393 _1037_
*1394 _1474_
*1395 _1039_
*1396 _1091_
*1397 _1465_
*1398 _127_
*1399 _1038_
*1400 _1489_
*1401 _1100_
*1402 _1466_
*1403 _1039_
*1404 _129_
*1405 _1040_
*1406 _1484_
*1407 _1078_
*1408 _1041_
*1409 _1056_
*1410 \u_SPI_HEAD_MOSI_REF_done_counter\[0]
*1411 _1520_
*1412 _1058_
*1413 _1051_
*1414 _1065_
*1415 _1045_
*1416 _146_
*1417 _1059_
*1418 _1079_
*1419 _1060_
*1420 _1130_
*1421 _1213_
*1422 \u_SPI_HEAD_MOSI_REF_done_counter\[3]
*1423 _1523_
*1424 _1168_
*1425 _1094_
*1426 _1105_
*1427 _1167_
*1428 _164_
*1429 _1094_
*1430 _1130_
*1431 _1213_
*1432 _1468_
*1433 _1095_
*1434 \u_SPI_HEAD_MOSI_REF_reset_hw_and_sleep_out_counter\[15]
*1435 _1508_
*1436 _1408_
*1437 _1395_
*1438 _1400_
*1439 _1107_
*1440 _185_
*1441 _1116_
*1442 _1219_
*1443 _1223_
*1444 _1217_
*1445 _1117_
*1446 _188_
*1447 _1119_
*1448 _1121_
*1449 _1430_
*1450 _1422_
*1451 _1435_
*1452 _189_
*1453 _1120_
*1454 _1443_
*1455 _1449_
*1456 _1121_
*1457 _1437_
*1458 _279_
*1459 _1227_
*1460 _1242_
*1461 _1251_
*1462 _1228_
*1463 _1254_
*1464 _321_
*1465 _1273_
*1466 _1281_
*1467 _1274_
*1468 _1287_
*1469 _1300_
*1470 _372_
*1471 _1328_
*1472 _1331_
*1473 _1342_
*1474 _1343_
*1475 _1397_
*1476 _387_
*1477 _1344_
*1478 _1345_
*1479 _1357_
*1480 _1371_
*1481 _1356_
*1482 _397_
*1483 _1355_
*1484 _1364_
*1485 _1356_
*1486 _1357_
*1487 _1371_
*1488 _411_
*1489 _1370_
*1490 _1378_
*1491 _1371_
*1492 _1384_
*1493 _1376_
*1494 _439_
*1495 _1400_
*1496 _1401_
*1497 _1411_
*1498 _1422_
*1499 _1435_
*1500 _461_
*1501 _1424_
*1502 _1428_
*1503 _1449_
*1504 _1437_
*1505 _1425_
*1506 \u_SPI_HEAD_MOSI_REF_enable_gen_O_sclk\
*1507 _1627_
*1508 _1622_
*1509 _1491_
*1510 _1533_
*1511 _1539_
*1512 _601_
*1513 _1606_
*1514 _1607_
*1515 _1611_
*1516 _1612_
*1517 _1609_
*1518 \u_auto_data_inst_AUTO_state\[1]
*1519 _1998_
*1520 _1664_
*1521 _1651_
*1522 _1642_
*1523 _1635_
*1524 \u_auto_data_inst_AUTO_state\[0]
*1525 _1997_
*1526 _1637_
*1527 _1664_
*1528 _1642_
*1529 _1650_
*1530 _626_
*1531 _1648_
*1532 _1665_
*1533 _1881_
*1534 _1870_
*1535 _1653_
*1536 _627_
*1537 _1649_
*1538 _1745_
*1539 _1653_
*1540 _1822_
*1541 _1659_
*1542 _628_
*1543 _1650_
*1544 _1652_
*1545 _1882_
*1546 _1888_
*1547 _1887_
*1548 \u_auto_data_inst_line_counter\[4]
*1549 _1992_
*1550 _1695_
*1551 _1712_
*1552 _1914_
*1553 _1696_
*1554 \u_auto_data_inst_line_counter\[6]
*1555 _1994_
*1556 _1875_
*1557 _1911_
*1558 _1710_
*1559 _1711_
*1560 \u_auto_data_inst_x_start_end_15_8\[6]
*1561 _1975_
*1562 _1772_
*1563 _1729_
*1564 _1951_
*1565 _1770_
*1566 _699_
*1567 _1730_
*1568 _1759_
*1569 _1758_
*1570 _1733_
*1571 _1939_
*1572 \u_auto_data_inst_x_start_end_15_8\[9]
*1573 _1978_
*1574 _1786_
*1575 _1796_
*1576 _1930_
*1577 _1735_
*1578 \u_auto_data_inst_x_start_end_15_8\[11]
*1579 _1980_
*1580 _1795_
*1581 _1735_
*1582 _1938_
*1583 _1796_
*1584 \u_auto_data_inst_x_start_end_15_8\[14]
*1585 _1983_
*1586 _1819_
*1587 _1737_
*1588 _1952_
*1589 _1816_
*1590 \u_auto_data_inst_x_start_end_15_8\[13]
*1591 _1982_
*1592 _1808_
*1593 _1809_
*1594 _1947_
*1595 _1738_
*1596 _714_
*1597 _1745_
*1598 _1888_
*1599 _1877_
*1600 _1746_
*1601 _1880_
*1602 _721_
*1603 _1754_
*1604 _1763_
*1605 _1757_
*1606 _1756_
*1607 _1755_
*1608 _727_
*1609 _1762_
*1610 _1764_
*1611 _1766_
*1612 _1767_
*1613 _1788_
*1614 _739_
*1615 _1777_
*1616 _1779_
*1617 _1783_
*1618 _1778_
*1619 _1801_
*1620 \u_auto_data_inst_done_count\[0]
*1621 _1985_
*1622 _1826_
*1623 _1824_
*1624 _1871_
*1625 _1828_
*1626 _777_
*1627 _1824_
*1628 _1825_
*1629 _1904_
*1630 _1832_
*1631 _1907_
*1632 _809_
*1633 _1867_
*1634 _1894_
*1635 _1897_
*1636 _1879_
*1637 _1886_
*1638 _813_
*1639 _1871_
*1640 _1907_
*1641 _1872_
*1642 _1898_
*1643 _1910_
*1644 _814_
*1645 _1872_
*1646 _1892_
*1647 _1873_
*1648 _1896_
*1649 _1884_
*1650 _22_
*1651 _933_
*1652 _934_
*1653 _960_
*1654 _948_
*1655 _954_
*1656 _28_
*1657 _940_
*1658 _973_
*1659 _980_
*1660 _941_
*1661 _966_
*1662 \SPI_MOSI_data_register\[7]
*1663 _1021_
*1664 _985_
*1665 _1006_
*1666 _980_
*1667 \SPI_MOSI_state_mosi\[0]
*1668 _1007_
*1669 _902_
*1670 _922_
*1671 _929_
*1672 \SPI_MOSI_tx_stage\
*1673 _1013_
*1674 _1489_
*1675 _928_
*1676 _1545_
*1677 \SPI_MOSI_data_register\[1]
*1678 _1015_
*1679 _941_
*1680 _944_
*1681 _949_
*1682 \SPI_MOSI_data_register\[5]
*1683 _1019_
*1684 _966_
*1685 _969_
*1686 _975_
*1687 \SPI_MOSI_data_register\[6]
*1688 _1020_
*1689 _984_
*1690 _978_
*1691 _973_
*1692 \SPI_MOSI_sclk_counter\[1]
*1693 _1023_
*1694 _994_
*1695 _894_
*1696 _993_
*1697 _124_
*1698 _1035_
*1699 _1036_
*1700 _1057_
*1701 _1060_
*1702 _130_
*1703 _1041_
*1704 _1042_
*1705 _1054_
*1706 _1067_
*1707 _131_
*1708 _1042_
*1709 _1080_
*1710 _1048_
*1711 _1073_
*1712 _134_
*1713 _1045_
*1714 _1071_
*1715 _1046_
*1716 _1067_
*1717 _139_
*1718 _1051_
*1719 _1213_
*1720 _1052_
*1721 _1463_
*1722 _143_
*1723 _1056_
*1724 _1082_
*1725 _1057_
*1726 _1060_
*1727 INST_OUT_AUTO_TO_HEAD[2]
*1728 _1887_
*1729 _1903_
*1730 _1062_
*1731 _1889_
*1732 _151_
*1733 _1065_
*1734 _1162_
*1735 _1160_
*1736 _1066_
*1737 \SPI_MOSI_tx_load\
*1738 _1078_
*1739 _922_
*1740 _903_
*1741 _920_
*1742 _161_
*1743 _1091_
*1744 _1152_
*1745 _1209_
*1746 _1092_
*1747 \u_SPI_HEAD_MOSI_REF_Tcss_done\
*1748 _1528_
*1749 _1471_
*1750 _1482_
*1751 _1098_
*1752 _183_
*1753 _1114_
*1754 _1117_
*1755 _1254_
*1756 _1251_
*1757 _201_
*1758 _1134_
*1759 _1143_
*1760 _1172_
*1761 _1465_
*1762 \u_SPI_HEAD_MOSI_REF_HW_RESET_HOLD_counter\[1]
*1763 _1514_
*1764 _1177_
*1765 _1136_
*1766 _1176_
*1767 \u_SPI_HEAD_MOSI_REF_HW_RESET_HOLD_counter\[3]
*1768 _1516_
*1769 _1186_
*1770 _1184_
*1771 _1138_
*1772 \u_SPI_HEAD_MOSI_REF_HW_RESET_HOLD_counter\[6]
*1773 _1519_
*1774 _1140_
*1775 _1198_
*1776 _1197_
*1777 \u_SPI_HEAD_MOSI_REF_HW_RESET_HOLD_counter\[5]
*1778 _1518_
*1779 _1194_
*1780 _1140_
*1781 _1192_
*1782 \u_SPI_HEAD_MOSI_REF_HW_RESET_HOLD_counter\[4]
*1783 _1517_
*1784 _1141_
*1785 _1189_
*1786 _1190_
*1787 _210_
*1788 _1144_
*1789 _1154_
*1790 _1484_
*1791 _1209_
*1792 _219_
*1793 _1153_
*1794 _1208_
*1795 _1154_
*1796 _1484_
*1797 _232_
*1798 _1171_
*1799 _1175_
*1800 _1173_
*1801 _1174_
*1802 _233_
*1803 _1172_
*1804 _1175_
*1805 _1173_
*1806 _1174_
*1807 _237_
*1808 _1177_
*1809 _1180_
*1810 _1181_
*1811 _1178_
*1812 _239_
*1813 _1180_
*1814 _1184_
*1815 _1186_
*1816 _1183_
*1817 _243_
*1818 _1185_
*1819 _1187_
*1820 _1189_
*1821 _1190_
*1822 _246_
*1823 _1189_
*1824 _1191_
*1825 _1194_
*1826 _1192_
*1827 _249_
*1828 _1193_
*1829 _1195_
*1830 _1197_
*1831 _1198_
*1832 _257_
*1833 _1203_
*1834 _1244_
*1835 _1204_
*1836 _1205_
*1837 _266_
*1838 _1213_
*1839 _1214_
*1840 _1239_
*1841 _1454_
*1842 _280_
*1843 _1228_
*1844 _1235_
*1845 _1230_
*1846 _1231_
*1847 _296_
*1848 _1245_
*1849 _1258_
*1850 _1264_
*1851 _1248_
*1852 _303_
*1853 _1253_
*1854 _1254_
*1855 _1263_
*1856 _1271_
*1857 _309_
*1858 _1260_
*1859 _1264_
*1860 _1300_
*1861 _1287_
*1862 _310_
*1863 _1261_
*1864 _1274_
*1865 _1271_
*1866 _1263_
*1867 _323_
*1868 _1275_
*1869 _1283_
*1870 _1279_
*1871 _1276_
*1872 _347_
*1873 _1301_
*1874 _1330_
*1875 _1315_
*1876 _1303_
*1877 _375_
*1878 _1331_
*1879 _1335_
*1880 _1332_
*1881 _1339_
*1882 _388_
*1883 _1345_
*1884 _1352_
*1885 _1348_
*1886 _1347_
*1887 _401_
*1888 _1359_
*1889 _1361_
*1890 _1362_
*1891 _1366_
*1892 _412_
*1893 _1371_
*1894 _1383_
*1895 _1400_
*1896 _1372_
*1897 _425_
*1898 _1385_
*1899 _1392_
*1900 _1387_
*1901 _1388_
*1902 _440_
*1903 _1401_
*1904 _1408_
*1905 _1403_
*1906 _1405_
*1907 \u_SPI_HEAD_MOSI_REF_sclk_gen_O_clk_counter\[4]
*1908 _1632_
*1909 _1554_
*1910 _1553_
*1911 _1613_
*1912 \u_SPI_HEAD_MOSI_REF_sclk_gen_O_clk_counter\[3]
*1913 _1631_
*1914 _1609_
*1915 _1565_
*1916 _1564_
*1917 _562_
*1918 _1565_
*1919 _1569_
*1920 _1611_
*1921 _1612_
*1922 \u_SPI_HEAD_MOSI_REF_sclk_gen_O_clk_counter\[2]
*1923 _1630_
*1924 _1573_
*1925 _1572_
*1926 _1606_
*1927 \u_SPI_HEAD_MOSI_REF_sclk_gen_O_clk_counter\[6]
*1928 _1634_
*1929 _1619_
*1930 _1587_
*1931 _1598_
*1932 _587_
*1933 _1590_
*1934 _1623_
*1935 _1624_
*1936 _1601_
*1937 _589_
*1938 _1592_
*1939 _1594_
*1940 _1596_
*1941 _1599_
*1942 \u_SPI_HEAD_MOSI_REF_sclk_gen_O_clk_counter\[5]
*1943 _1633_
*1944 _1616_
*1945 _1595_
*1946 _1594_
*1947 _597_
*1948 _1600_
*1949 _1601_
*1950 _1624_
*1951 _1623_
*1952 _606_
*1953 _1613_
*1954 _1614_
*1955 _1618_
*1956 _1616_
*1957 _615_
*1958 _1635_
*1959 _1645_
*1960 _1639_
*1961 _1650_
*1962 _616_
*1963 _1636_
*1964 _1639_
*1965 _1752_
*1966 _1644_
*1967 _617_
*1968 _1637_
*1969 _1651_
*1970 _1638_
*1971 _1645_
*1972 \u_auto_data_inst_AUTO_state\[3]
*1973 _2000_
*1974 _1752_
*1975 _1641_
*1976 _1638_
*1977 _621_
*1978 _1642_
*1979 _1657_
*1980 _1643_
*1981 _1746_
*1982 _625_
*1983 _1647_
*1984 _1655_
*1985 _1648_
*1986 _1887_
*1987 \u_auto_data_inst_pixel_counter\
*1988 _1996_
*1989 _1663_
*1990 _1661_
*1991 _1669_
*1992 _642_
*1993 _1664_
*1994 _1665_
*1995 _1752_
*1996 _1877_
*1997 _649_
*1998 _1672_
*1999 _1915_
*2000 _1681_
*2001 _1675_
*2002 _654_
*2003 _1678_
*2004 _1679_
*2005 _1688_
*2006 _1685_
*2007 \u_auto_data_inst_line_counter\[2]
*2008 _1990_
*2009 _1684_
*2010 _1923_
*2011 _1698_
*2012 \u_auto_data_inst_line_counter\[3]
*2013 _1991_
*2014 _1692_
*2015 _1691_
*2016 _1698_
*2017 _666_
*2018 _1692_
*2019 _1912_
*2020 _1924_
*2021 _1693_
*2022 _669_
*2023 _1696_
*2024 _1913_
*2025 _1701_
*2026 _1703_
*2027 _673_
*2028 _1700_
*2029 _1703_
*2030 _1701_
*2031 _1713_
*2032 _674_
*2033 _1701_
*2034 _1706_
*2035 _1702_
*2036 _1708_
*2037 _683_
*2038 _1712_
*2039 _1714_
*2040 _1713_
*2041 _1876_
*2042 _687_
*2043 _1716_
*2044 _1717_
*2045 _1722_
*2046 _1723_
*2047 \u_auto_data_inst_x_start_end_15_8\[3]
*2048 _1972_
*2049 _1730_
*2050 _1760_
*2051 _1774_
*2052 \u_auto_data_inst_x_start_end_15_8\[15]
*2053 _1984_
*2054 _1736_
*2055 _1956_
*2056 _1818_
*2057 _706_
*2058 _1737_
*2059 _1818_
*2060 _1739_
*2061 _1814_
*2062 \u_auto_data_inst_x_start_end_15_8\[8]
*2063 _1977_
*2064 _1905_
*2065 _1740_
*2066 _1781_
*2067 _709_
*2068 _1740_
*2069 _1783_
*2070 _1787_
*2071 _1741_
*2072 _712_
*2073 _1743_
*2074 _1782_
*2075 _1744_
*2076 _1771_
*2077 _719_
*2078 _1752_
*2079 _1804_
*2080 _1754_
*2081 _1762_
*2082 _720_
*2083 _1753_
*2084 _1780_
*2085 _1754_
*2086 _1775_
*2087 _733_
*2088 _1770_
*2089 _1771_
*2090 _1776_
*2091 _1780_
*2092 _746_
*2093 _1786_
*2094 _1790_
*2095 _1789_
*2096 _1792_
*2097 _751_
*2098 _1792_
*2099 _1794_
*2100 _1793_
*2101 _1795_
*2102 _754_
*2103 _1796_
*2104 _1797_
*2105 _1815_
*2106 _1802_
*2107 _759_
*2108 _1802_
*2109 _1803_
*2110 _1813_
*2111 _1805_
*2112 _765_
*2113 _1809_
*2114 _1810_
*2115 _1812_
*2116 _1815_
*2117 _774_
*2118 _1821_
*2119 _1833_
*2120 _1828_
*2121 _1839_
*2122 _776_
*2123 _1823_
*2124 _1834_
*2125 _1828_
*2126 _1840_
*2127 _778_
*2128 _1825_
*2129 _1827_
*2130 _1838_
*2131 _1830_
*2132 _788_
*2133 _1837_
*2134 _1838_
*2135 _1872_
*2136 _1898_
*2137 \u_auto_data_inst_y_register\[3]
*2138 _1964_
*2139 _1852_
*2140 _1924_
*2141 _1912_
*2142 _807_
*2143 _1864_
*2144 _1866_
*2145 _1924_
*2146 _1912_
*2147 _818_
*2148 _1876_
*2149 _1890_
*2150 _1895_
*2151 _1877_
*2152 _824_
*2153 _1883_
*2154 _1884_
*2155 _1901_
*2156 _1945_
*2157 _91_
*2158 _902_
*2159 _903_
*2160 _919_
*2161 _926_
*2162 _97_
*2163 _909_
*2164 _911_
*2165 _937_
*2166 _983_
*2167 _99_
*2168 _911_
*2169 _938_
*2170 _912_
*2171 _933_
*2172 _20_
*2173 _931_
*2174 _932_
*2175 _944_
*2176 _969_
*2177 _78_
*2178 _999_
*2179 _1002_
*2180 _1000_
*2181 \SPI_MOSI_sclk_counter\[3]
*2182 _1025_
*2183 _1001_
*2184 _895_
*2185 _107_
*2186 _922_
*2187 _1003_
*2188 _923_
*2189 _92_
*2190 _903_
*2191 _904_
*2192 _1004_
*2193 _90_
*2194 _901_
*2195 _904_
*2196 _1005_
*2197 _2_
*2198 _1011_
*2199 _917_
*2200 _888_
*2201 \SPI_MOSI_data_register\[0]
*2202 _1014_
*2203 _934_
*2204 _942_
*2205 \SPI_MOSI_data_register\[2]
*2206 _1016_
*2207 _948_
*2208 _955_
*2209 \SPI_MOSI_data_register\[3]
*2210 _1017_
*2211 _954_
*2212 _961_
*2213 \SPI_MOSI_data_register\[4]
*2214 _1018_
*2215 _960_
*2216 _967_
*2217 \SPI_MOSI_sclk_counter\[2]
*2218 _1024_
*2219 _998_
*2220 _894_
*2221 _0_
*2222 _1033_
*2223 _1135_
*2224 _886_
*2225 INST_OUT_AUTO_TO_HEAD[0]
*2226 _1899_
*2227 _1902_
*2228 _1034_
*2229 _135_
*2230 _1046_
*2231 _1050_
*2232 _1047_
*2233 INST_OUT_AUTO_TO_HEAD[1]
*2234 _1902_
*2235 _1903_
*2236 _1049_
*2237 _140_
*2238 _1052_
*2239 _1053_
*2240 _1105_
*2241 _141_
*2242 _1053_
*2243 _1057_
*2244 _1054_
*2245 _142_
*2246 _1054_
*2247 _1055_
*2248 _1070_
*2249 _147_
*2250 _1060_
*2251 _1061_
*2252 _1070_
*2253 _148_
*2254 _1061_
*2255 _1075_
*2256 _1063_
*2257 INST_OUT_AUTO_TO_HEAD[5]
*2258 _1903_
*2259 _1072_
*2260 _1064_
*2261 _152_
*2262 _1066_
*2263 _1067_
*2264 _1079_
*2265 _155_
*2266 _1071_
*2267 _1478_
*2268 _1073_
*2269 _166_
*2270 _1096_
*2271 _1097_
*2272 _1482_
*2273 _167_
*2274 _1097_
*2275 _1098_
*2276 _1471_
*2277 _170_
*2278 _1100_
*2279 _1101_
*2280 _1485_
*2281 _177_
*2282 _1108_
*2283 _1149_
*2284 _1111_
*2285 _184_
*2286 _1115_
*2287 _1233_
*2288 _1117_
*2289 _187_
*2290 _1118_
*2291 _1125_
*2292 _1150_
*2293 _192_
*2294 _1123_
*2295 _1151_
*2296 _1124_
*2297 _202_
*2298 _1135_
*2299 _1172_
*2300 _1142_
*2301 \u_SPI_HEAD_MOSI_REF_HW_RESET_HOLD_counter\[0]
*2302 _1513_
*2303 _1171_
*2304 _1136_
*2305 \u_SPI_HEAD_MOSI_REF_HW_RESET_HOLD_counter\[2]
*2306 _1515_
*2307 _1182_
*2308 _1137_
*2309 _204_
*2310 _1137_
*2311 _1180_
*2312 _1138_
*2313 \u_SPI_HEAD_MOSI_REF_hw_reset_done\
*2314 _1524_
*2315 _1144_
*2316 _1208_
*2317 _213_
*2318 _1147_
*2319 _1148_
*2320 _1328_
*2321 _225_
*2322 _1162_
*2323 _1165_
*2324 _1163_
*2325 _226_
*2326 _1163_
*2327 _1164_
*2328 _1167_
*2329 _227_
*2330 _1164_
*2331 _1166_
*2332 _1169_
*2333 _230_
*2334 _1168_
*2335 _1463_
*2336 _1169_
*2337 _235_
*2338 _1175_
*2339 _1177_
*2340 _1176_
*2341 _289_
*2342 _1238_
*2343 _1240_
*2344 _1265_
*2345 _291_
*2346 _1240_
*2347 _1250_
*2348 _1241_
*2349 _294_
*2350 _1243_
*2351 _1459_
*2352 _1245_
*2353 _295_
*2354 _1244_
*2355 _1482_
*2356 _1245_
*2357 _301_
*2358 _1251_
*2359 _1252_
*2360 _1260_
*2361 _302_
*2362 _1252_
*2363 _1255_
*2364 _1274_
*2365 _311_
*2366 _1262_
*2367 _1263_
*2368 _1271_
*2369 _319_
*2370 _1271_
*2371 _1288_
*2372 _1272_
*2373 _320_
*2374 _1272_
*2375 _1275_
*2376 _1302_
*2377 _336_
*2378 _1289_
*2379 _1294_
*2380 _1290_
*2381 _337_
*2382 _1290_
*2383 _1292_
*2384 _1297_
*2385 _346_
*2386 _1300_
*2387 _1301_
*2388 _1344_
*2389 _349_
*2390 _1303_
*2391 _1308_
*2392 _1304_
*2393 _350_
*2394 _1304_
*2395 _1311_
*2396 _1306_
*2397 _361_
*2398 _1316_
*2399 _1317_
*2400 _1321_
*2401 _363_
*2402 _1318_
*2403 _1320_
*2404 _1325_
*2405 _373_
*2406 _1329_
*2407 _1330_
*2408 _1337_
*2409 _399_
*2410 _1357_
*2411 _1369_
*2412 _1358_
*2413 _400_
*2414 _1358_
*2415 _1359_
*2416 _1384_
*2417 _413_
*2418 _1372_
*2419 _1377_
*2420 _1373_
*2421 _414_
*2422 _1373_
*2423 _1380_
*2424 _1375_
*2425 _437_
*2426 _1398_
*2427 _1399_
*2428 _1423_
*2429 _449_
*2430 _1411_
*2431 _1412_
*2432 _1416_
*2433 _450_
*2434 _1412_
*2435 _1419_
*2436 _1414_
*2437 _459_
*2438 _1422_
*2439 _1428_
*2440 _1425_
*2441 _462_
*2442 _1425_
*2443 _1427_
*2444 _1432_
*2445 _471_
*2446 _1435_
*2447 _1436_
*2448 _1450_
*2449 _472_
*2450 _1436_
*2451 _1441_
*2452 _1438_
*2453 _473_
*2454 _1437_
*2455 _1438_
*2456 _1441_
*2457 _474_
*2458 _1438_
*2459 _1440_
*2460 _1445_
*2461 _484_
*2462 _1449_
*2463 _1451_
*2464 _1455_
*2465 _485_
*2466 _1450_
*2467 _1451_
*2468 _1455_
*2469 _486_
*2470 _1451_
*2471 _1459_
*2472 _1453_
*2473 _496_
*2474 _1462_
*2475 _1464_
*2476 _1480_
*2477 _497_
*2478 _1463_
*2479 _1485_
*2480 _1464_
*2481 SPI_request
*2482 _1476_
*2483 _1868_
*2484 _511_
*2485 _1478_
*2486 _1485_
*2487 _1480_
*2488 _520_
*2489 _1489_
*2490 _1490_
*2491 _1492_
*2492 \u_SPI_HEAD_MOSI_REF_enable_gen_O_sclk_reg_miso\
*2493 _1544_
*2494 _1532_
*2495 _1540_
*2496 _526_
*2497 _1535_
*2498 _1536_
*2499 _1541_
*2500 _530_
*2501 _1539_
*2502 _1543_
*2503 _1540_
*2504 _542_
*2505 _1545_
*2506 _1546_
*2507 _1621_
*2508 _543_
*2509 _1546_
*2510 _1625_
*2511 _1601_
*2512 _544_
*2513 _1547_
*2514 _1552_
*2515 _1550_
*2516 _547_
*2517 _1550_
*2518 _1551_
*2519 _1556_
*2520 _549_
*2521 _1552_
*2522 _1553_
*2523 _1555_
*2524 _551_
*2525 _1554_
*2526 _1556_
*2527 _1611_
*2528 _555_
*2529 _1558_
*2530 _1564_
*2531 _1593_
*2532 _556_
*2533 _1559_
*2534 _1568_
*2535 _1562_
*2536 _557_
*2537 _1560_
*2538 _1562_
*2539 _1585_
*2540 _558_
*2541 _1561_
*2542 _1562_
*2543 _1581_
*2544 _559_
*2545 _1562_
*2546 _1563_
*2547 _1572_
*2548 _568_
*2549 _1571_
*2550 _1572_
*2551 _1575_
*2552 _570_
*2553 _1573_
*2554 _1576_
*2555 _1605_
*2556 _575_
*2557 _1578_
*2558 _1605_
*2559 _1582_
*2560 _576_
*2561 _1579_
*2562 _1582_
*2563 _1583_
*2564 _577_
*2565 _1580_
*2566 _1581_
*2567 _1605_
*2568 _583_
*2569 _1586_
*2570 _1598_
*2571 _1587_
*2572 _590_
*2573 _1593_
*2574 _1596_
*2575 _1594_
*2576 _592_
*2577 _1595_
*2578 _1597_
*2579 _1618_
*2580 _538_
*2581 _1622_
*2582 _1623_
*2583 _1624_
*2584 _624_
*2585 _1646_
*2586 _1868_
*2587 _1661_
*2588 _631_
*2589 _1653_
*2590 _1660_
*2591 _1823_
*2592 _634_
*2593 _1656_
*2594 _1821_
*2595 _1660_
*2596 _635_
*2597 _1657_
*2598 _1843_
*2599 _1659_
*2600 _636_
*2601 _1658_
*2602 _1822_
*2603 _1659_
*2604 _641_
*2605 _1663_
*2606 _1667_
*2607 _1673_
*2608 _651_
*2609 _1674_
*2610 _1675_
*2611 _1681_
*2612 _656_
*2613 _1680_
*2614 _1921_
*2615 _1681_
*2616 _659_
*2617 _1684_
*2618 _1688_
*2619 _1685_
*2620 _660_
*2621 _1685_
*2622 _1693_
*2623 _1686_
*2624 _661_
*2625 _1686_
*2626 _1687_
*2627 _1691_
*2628 _672_
*2629 _1699_
*2630 _1715_
*2631 _1700_
*2632 _682_
*2633 _1711_
*2634 _1716_
*2635 _1713_
*2636 _691_
*2637 _1721_
*2638 _1722_
*2639 _1723_
*2640 _695_
*2641 _1726_
*2642 _1908_
*2643 _1744_
*2644 \u_auto_data_inst_x_start_end_15_8\[7]
*2645 _1976_
*2646 _1781_
*2647 _1727_
*2648 _700_
*2649 _1731_
*2650 _1733_
*2651 _1935_
*2652 _701_
*2653 _1732_
*2654 _1733_
*2655 _1749_
*2656 _705_
*2657 _1736_
*2658 _1739_
*2659 _1819_
*2660 _716_
*2661 _1748_
*2662 _1761_
*2663 _1749_
*2664 _723_
*2665 _1757_
*2666 _1758_
*2667 _1759_
*2668 _725_
*2669 _1760_
*2670 _1761_
*2671 _1763_
*2672 _726_
*2673 _1761_
*2674 _1762_
*2675 _1771_
*2676 _730_
*2677 _1766_
*2678 _1772_
*2679 _1768_
*2680 _736_
*2681 _1774_
*2682 _1775_
*2683 _1780_
*2684 _738_
*2685 _1776_
*2686 _1777_
*2687 _1788_
*2688 _742_
*2689 _1781_
*2690 _1782_
*2691 _1804_
*2692 _747_
*2693 _1787_
*2694 _1800_
*2695 _1788_
*2696 _758_
*2697 _1801_
*2698 _1813_
*2699 _1803_
*2700 _760_
*2701 _1803_
*2702 _1810_
*2703 _1807_
*2704 _762_
*2705 _1805_
*2706 _1811_
*2707 _1806_
*2708 _768_
*2709 _1813_
*2710 _1814_
*2711 _1818_
*2712 _770_
*2713 _1815_
*2714 _1819_
*2715 _1816_
*2716 _775_
*2717 _1822_
*2718 _1884_
*2719 _1823_
*2720 _782_
*2721 _1830_
*2722 _1833_
*2723 _1836_
*2724 _783_
*2725 _1831_
*2726 _1906_
*2727 _1832_
*2728 \u_auto_data_inst_y_register\[0]
*2729 _1961_
*2730 _1842_
*2731 _1916_
*2732 _792_
*2733 _1842_
*2734 _1845_
*2735 _1915_
*2736 \u_auto_data_inst_y_register\[1]
*2737 _1962_
*2738 _1920_
*2739 _1846_
*2740 _795_
*2741 _1846_
*2742 _1848_
*2743 _1921_
*2744 \u_auto_data_inst_y_register\[2]
*2745 _1963_
*2746 _1849_
*2747 _1923_
*2748 \u_auto_data_inst_y_register\[4]
*2749 _1965_
*2750 _1855_
*2751 _1914_
*2752 _801_
*2753 _1855_
*2754 _1913_
*2755 _1857_
*2756 \u_auto_data_inst_y_register\[5]
*2757 _1966_
*2758 _1919_
*2759 _1858_
*2760 \u_auto_data_inst_y_register\[6]
*2761 _1967_
*2762 _1911_
*2763 _1861_
*2764 _812_
*2765 _1870_
*2766 _1887_
*2767 _1874_
*2768 _821_
*2769 _1880_
*2770 _1881_
*2771 _1895_
*2772 _823_
*2773 _1882_
*2774 _1885_
*2775 _1900_
*2776 _829_
*2777 _1890_
*2778 _1926_
*2779 _1893_
*2780 _830_
*2781 _1891_
*2782 _1892_
*2783 _1899_
*2784 _835_
*2785 _1898_
*2786 _1901_
*2787 _1899_
*2788 _82_
*2789 _893_
*2790 _990_
*2791 _896_
*2792 _83_
*2793 _894_
*2794 _895_
*2795 _999_
*2796 _84_
*2797 _895_
*2798 _896_
*2799 _913_
*2800 _85_
*2801 _896_
*2802 _927_
*2803 _905_
*2804 _88_
*2805 _899_
*2806 _901_
*2807 _918_
*2808 ext_fifo_valid
*2809 _914_
*2810 _900_
*2811 _89_
*2812 _900_
*2813 _918_
*2814 _901_
*2815 _96_
*2816 _908_
*2817 _929_
*2818 _911_
*2819 _101_
*2820 _914_
*2821 _916_
*2822 _915_
*2823 _21_
*2824 _932_
*2825 _974_
*2826 _933_
*2827 _71_
*2828 _990_
*2829 _991_
*2830 _996_
*2831 _74_
*2832 _994_
*2833 _997_
*2834 _995_
*2835 _76_
*2836 _997_
*2837 _1000_
*2838 _77_
*2839 _998_
*2840 _1000_
*2841 _10_[2]
*2842 _1000_
*2843 _1024_
*2844 _79_
*2845 _1001_
*2846 _1002_
*2847 _10_[3]
*2848 _1002_
*2849 _1025_
*2850 _14_
*2851 _1003_
*2852 _1009_
*2853 _80_
*2854 _1004_
*2855 _1005_
*2856 _13_
*2857 _1005_
*2858 _1008_
*2859 _3_
*2860 _1006_
*2861 _889_
*2862 _15_
*2863 _905_
*2864 _1007_
*2865 _16_
*2866 _913_
*2867 _1010_
*2868 _8_
*2869 _925_
*2870 _1011_
*2871 _9_
*2872 _927_
*2873 _1012_
*2874 _11_
*2875 _929_
*2876 _1013_
*2877 _6_[0]
*2878 _939_
*2879 _1014_
*2880 _6_[1]
*2881 _947_
*2882 _1015_
*2883 _6_[2]
*2884 _953_
*2885 _1016_
*2886 _6_[3]
*2887 _959_
*2888 _1017_
*2889 _6_[4]
*2890 _965_
*2891 _1018_
*2892 _6_[5]
*2893 _972_
*2894 _1019_
*2895 _6_[6]
*2896 _979_
*2897 _1020_
*2898 _6_[7]
*2899 _988_
*2900 _1021_
*2901 _10_[0]
*2902 _992_
*2903 _1022_
*2904 _10_[1]
*2905 _996_
*2906 _1023_
*2907 _7_
*2908 _915_
*2909 _1026_
*2910 \SPI_MOSI_data_valid_d\
*2911 _1026_
*2912 _916_
*2913 _12_
*2914 _916_
*2915 _1027_
*2916 \SPI_MOSI_valid_pulse\
*2917 _1027_
*2918 _900_
*2919 _122_
*2920 _1032_
*2921 _1033_
*2922 _123_
*2923 _1034_
*2924 _1048_
*2925 _125_
*2926 _1036_
*2927 _1041_
*2928 _128_
*2929 _1039_
*2930 _1040_
*2931 _136_
*2932 _1047_
*2933 _1048_
*2934 INST_HEAD_TO_SPI[0]
*2935 _1048_
*2936 _936_
*2937 _137_
*2938 _1049_
*2939 _1055_
*2940 _138_
*2941 _1050_
*2942 _1054_
*2943 INST_HEAD_TO_SPI[1]
*2944 _1055_
*2945 _943_
*2946 _144_
*2947 _1057_
*2948 _1063_
*2949 _149_
*2950 _1062_
*2951 _1063_
*2952 INST_HEAD_TO_SPI[2]
*2953 _1063_
*2954 _950_
*2955 _150_
*2956 _1064_
*2957 _1068_
*2958 _153_
*2959 _1067_
*2960 _1068_
*2961 INST_HEAD_TO_SPI[3]
*2962 _1068_
*2963 _956_
*2964 _154_
*2965 _1069_
*2966 _1070_
*2967 INST_HEAD_TO_SPI[4]
*2968 _1070_
*2969 _962_
*2970 _156_
*2971 _1072_
*2972 _1073_
*2973 INST_HEAD_TO_SPI[5]
*2974 _1073_
*2975 _968_
*2976 _157_
*2977 _1074_
*2978 _1075_
*2979 INST_HEAD_TO_SPI[6]
*2980 _1075_
*2981 _976_
*2982 INST_HEAD_TO_SPI[7]
*2983 _1076_
*2984 _982_
*2985 TX_LOAD_AUTO_TO_HEAD
*2986 _1640_
*2987 _1077_
*2988 _158_
*2989 _1077_
*2990 _1078_
*2991 _159_
*2992 _1079_
*2993 _1080_
*2994 DCX_HEAD_TO_SPI
*2995 _1080_
*2996 _923_
*2997 CS_AUTO
*2998 _1960_
*2999 _1081_
*3000 _160_
*3001 _1081_
*3002 _1082_
*3003 DATA_OUT_AUTO_TO_HEAD[0]
*3004 _1928_
*3005 _1083_
*3006 DATA_HEAD_TO_SPI[0]
*3007 _1083_
*3008 _935_
*3009 DATA_OUT_AUTO_TO_HEAD[1]
*3010 _1933_
*3011 _1084_
*3012 DATA_HEAD_TO_SPI[1]
*3013 _1084_
*3014 _943_
*3015 DATA_OUT_AUTO_TO_HEAD[2]
*3016 _1937_
*3017 _1085_
*3018 DATA_HEAD_TO_SPI[2]
*3019 _1085_
*3020 _950_
*3021 DATA_OUT_AUTO_TO_HEAD[3]
*3022 _1941_
*3023 _1086_
*3024 DATA_HEAD_TO_SPI[3]
*3025 _1086_
*3026 _956_
*3027 DATA_OUT_AUTO_TO_HEAD[4]
*3028 _1945_
*3029 _1087_
*3030 DATA_HEAD_TO_SPI[4]
*3031 _1087_
*3032 _962_
*3033 DATA_OUT_AUTO_TO_HEAD[5]
*3034 _1950_
*3035 _1088_
*3036 DATA_HEAD_TO_SPI[5]
*3037 _1088_
*3038 _968_
*3039 DATA_OUT_AUTO_TO_HEAD[6]
*3040 _1955_
*3041 _1089_
*3042 DATA_HEAD_TO_SPI[6]
*3043 _1089_
*3044 _976_
*3045 DATA_OUT_AUTO_TO_HEAD[7]
*3046 _1959_
*3047 _1090_
*3048 DATA_HEAD_TO_SPI[7]
*3049 _1090_
*3050 _981_
*3051 _165_
*3052 _1095_
*3053 _1096_
*3054 _168_
*3055 _1098_
*3056 _1103_
*3057 _172_
*3058 _1102_
*3059 _1103_
*3060 _112_
*3061 _1103_
*3062 _1528_
*3063 _176_
*3064 _1107_
*3065 _1108_
*3066 _179_
*3067 _1110_
*3068 _1111_
*3069 _180_
*3070 _1111_
*3071 _1126_
*3072 _181_
*3073 _1112_
*3074 _1113_
*3075 _182_
*3076 _1113_
*3077 _1118_
*3078 _186_
*3079 _1117_
*3080 _1118_
*3081 _190_
*3082 _1121_
*3083 _1123_
*3084 _191_
*3085 _1122_
*3086 _1123_
*3087 _193_
*3088 _1124_
*3089 _1125_
*3090 _194_
*3091 _1125_
*3092 _1126_
*3093 _196_
*3094 _1127_
*3095 _1128_
*3096 _118_
*3097 _1128_
*3098 _1527_
*3099 _200_
*3100 _1132_
*3101 _1133_
*3102 _116_
*3103 _1133_
*3104 _1526_
*3105 \u_SPI_HEAD_MOSI_REF_hw_reset_hold_done\
*3106 _1525_
*3107 _1134_
*3108 _203_
*3109 _1136_
*3110 _1139_
*3111 _205_
*3112 _1138_
*3113 _1139_
*3114 _206_
*3115 _1139_
*3116 _1142_
*3117 _207_
*3118 _1140_
*3119 _1141_
*3120 _208_
*3121 _1141_
*3122 _1142_
*3123 _209_
*3124 _1142_
*3125 _1143_
*3126 _115_
*3127 _1143_
*3128 _1525_
*3129 _214_
*3130 _1148_
*3131 _1149_
*3132 _215_
*3133 _1149_
*3134 _1150_
*3135 _216_
*3136 _1150_
*3137 _1151_
*3138 _218_
*3139 _1152_
*3140 _1153_
*3141 _220_
*3142 _1154_
*3143 _1155_
*3144 _114_
*3145 _1155_
*3146 _1524_
*3147 _221_
*3148 _1156_
*3149 _1157_
*3150 _222_
*3151 _1157_
*3152 _1158_
*3153 _113_[0]
*3154 _1158_
*3155 _1520_
*3156 _223_
*3157 _1159_
*3158 _1160_
*3159 _224_
*3160 _1160_
*3161 _1161_
*3162 _113_[1]
*3163 _1161_
*3164 _1521_
*3165 _228_
*3166 _1165_
*3167 _1166_
*3168 _113_[2]
*3169 _1166_
*3170 _1522_
*3171 _229_
*3172 _1167_
*3173 _1170_
*3174 _231_
*3175 _1169_
*3176 _1170_
*3177 _113_[3]
*3178 _1170_
*3179 _1523_
*3180 _234_
*3181 _1173_
*3182 _1174_
*3183 _110_[0]
*3184 _1174_
*3185 _1513_
*3186 _236_
*3187 _1176_
*3188 _1179_
*3189 _238_
*3190 _1178_
*3191 _1179_
*3192 _110_[1]
*3193 _1179_
*3194 _1514_
*3195 _240_
*3196 _1181_
*3197 _1182_
*3198 _241_
*3199 _1182_
*3200 _1183_
*3201 _110_[2]
*3202 _1183_
*3203 _1515_
*3204 _242_
*3205 _1184_
*3206 _1185_
*3207 _244_
*3208 _1186_
*3209 _1187_
*3210 _245_
*3211 _1187_
*3212 _1188_
*3213 _110_[3]
*3214 _1188_
*3215 _1516_
*3216 _247_
*3217 _1190_
*3218 _1191_
*3219 _110_[4]
*3220 _1191_
*3221 _1517_
*3222 _248_
*3223 _1192_
*3224 _1193_
*3225 _250_
*3226 _1194_
*3227 _1195_
*3228 _251_
*3229 _1195_
*3230 _1196_
*3231 _110_[5]
*3232 _1196_
*3233 _1518_
*3234 _252_
*3235 _1197_
*3236 _1198_
*3237 _110_[6]
*3238 _1198_
*3239 _1519_
*3240 _253_
*3241 _1199_
*3242 _1200_
*3243 _254_
*3244 _1200_
*3245 _1201_
*3246 _255_
*3247 _1201_
*3248 _1206_
*3249 _258_
*3250 _1204_
*3251 _1205_
*3252 _259_
*3253 _1205_
*3254 _1206_
*3255 _260_
*3256 _1206_
*3257 _1211_
*3258 _261_
*3259 _1207_
*3260 _1210_
*3261 _264_
*3262 _1210_
*3263 _1211_
*3264 _117_[0]
*3265 _1211_
*3266 _1493_
*3267 _265_
*3268 _1212_
*3269 _1215_
*3270 _268_
*3271 _1215_
*3272 _1222_
*3273 _270_
*3274 _1217_
*3275 _1218_
*3276 _271_
*3277 _1218_
*3278 _1221_
*3279 _272_
*3280 _1219_
*3281 _1220_
*3282 _273_
*3283 _1220_
*3284 _1221_
*3285 _274_
*3286 _1221_
*3287 _1222_
*3288 _275_
*3289 _1222_
*3290 _1225_
*3291 _276_
*3292 _1223_
*3293 _1224_
*3294 _277_
*3295 _1224_
*3296 _1225_
*3297 _117_[1]
*3298 _1225_
*3299 _1494_
*3300 _278_
*3301 _1226_
*3302 _1228_
*3303 _281_
*3304 _1229_
*3305 _1230_
*3306 _282_
*3307 _1230_
*3308 _1234_
*3309 _283_
*3310 _1231_
*3311 _1232_
*3312 _284_
*3313 _1232_
*3314 _1233_
*3315 _285_
*3316 _1233_
*3317 _1234_
*3318 _286_
*3319 _1234_
*3320 _1237_
*3321 _287_
*3322 _1235_
*3323 _1236_
*3324 _288_
*3325 _1236_
*3326 _1237_
*3327 _117_[2]
*3328 _1237_
*3329 _1495_
*3330 _290_
*3331 _1239_
*3332 _1240_
*3333 _292_
*3334 _1241_
*3335 _1249_
*3336 _293_
*3337 _1242_
*3338 _1248_
*3339 _297_
*3340 _1246_
*3341 _1247_
*3342 _298_
*3343 _1247_
*3344 _1248_
*3345 _299_
*3346 _1248_
*3347 _1249_
*3348 _117_[3]
*3349 _1249_
*3350 _1496_
*3351 _300_
*3352 _1250_
*3353 _1259_
*3354 _304_
*3355 _1254_
*3356 _1255_
*3357 _305_
*3358 _1255_
*3359 _1258_
*3360 _306_
*3361 _1256_
*3362 _1257_
*3363 _307_
*3364 _1257_
*3365 _1258_
*3366 _308_
*3367 _1258_
*3368 _1259_
*3369 _117_[4]
*3370 _1259_
*3371 _1497_
*3372 _312_
*3373 _1263_
*3374 _1264_
*3375 _313_
*3376 _1264_
*3377 _1270_
*3378 _314_
*3379 _1265_
*3380 _1269_
*3381 _315_
*3382 _1266_
*3383 _1268_
*3384 _316_
*3385 _1267_
*3386 _1268_
*3387 _317_
*3388 _1268_
*3389 _1269_
*3390 _318_
*3391 _1269_
*3392 _1270_
*3393 _117_[5]
*3394 _1270_
*3395 _1498_
*3396 _322_
*3397 _1274_
*3398 _1275_
*3399 _324_
*3400 _1276_
*3401 _1277_
*3402 _325_
*3403 _1277_
*3404 _1278_
*3405 _326_
*3406 _1278_
*3407 _1282_
*3408 _327_
*3409 _1279_
*3410 _1280_
*3411 _328_
*3412 _1280_
*3413 _1281_
*3414 _329_
*3415 _1281_
*3416 _1282_
*3417 _330_
*3418 _1282_
*3419 _1285_
*3420 _331_
*3421 _1283_
*3422 _1284_
*3423 _332_
*3424 _1284_
*3425 _1285_
*3426 _117_[6]
*3427 _1285_
*3428 _1499_
*3429 _334_
*3430 _1287_
*3431 _1289_
*3432 _338_
*3433 _1291_
*3434 _1292_
*3435 _339_
*3436 _1292_
*3437 _1296_
*3438 _340_
*3439 _1293_
*3440 _1294_
*3441 _341_
*3442 _1294_
*3443 _1295_
*3444 _342_
*3445 _1295_
*3446 _1296_
*3447 _343_
*3448 _1296_
*3449 _1299_
*3450 _344_
*3451 _1297_
*3452 _1298_
*3453 _345_
*3454 _1298_
*3455 _1299_
*3456 _117_[7]
*3457 _1299_
*3458 _1500_
*3459 _348_
*3460 _1302_
*3461 _1303_
*3462 _351_
*3463 _1305_
*3464 _1306_
*3465 _352_
*3466 _1306_
*3467 _1310_
*3468 _353_
*3469 _1307_
*3470 _1308_
*3471 _354_
*3472 _1308_
*3473 _1309_
*3474 _355_
*3475 _1309_
*3476 _1310_
*3477 _356_
*3478 _1310_
*3479 _1313_
*3480 _357_
*3481 _1311_
*3482 _1312_
*3483 _358_
*3484 _1312_
*3485 _1313_
*3486 _117_[8]
*3487 _1313_
*3488 _1501_
*3489 _359_
*3490 _1314_
*3491 _1316_
*3492 _360_
*3493 _1315_
*3494 _1316_
*3495 _362_
*3496 _1317_
*3497 _1318_
*3498 _364_
*3499 _1319_
*3500 _1320_
*3501 _365_
*3502 _1320_
*3503 _1324_
*3504 _366_
*3505 _1321_
*3506 _1322_
*3507 _367_
*3508 _1322_
*3509 _1323_
*3510 _368_
*3511 _1323_
*3512 _1324_
*3513 _369_
*3514 _1324_
*3515 _1327_
*3516 _370_
*3517 _1325_
*3518 _1326_
*3519 _371_
*3520 _1326_
*3521 _1327_
*3522 _117_[9]
*3523 _1327_
*3524 _1502_
*3525 _374_
*3526 _1330_
*3527 _1331_
*3528 _376_
*3529 _1332_
*3530 _1333_
*3531 _377_
*3532 _1333_
*3533 _1334_
*3534 _378_
*3535 _1334_
*3536 _1338_
*3537 _379_
*3538 _1335_
*3539 _1336_
*3540 _380_
*3541 _1336_
*3542 _1337_
*3543 _381_
*3544 _1337_
*3545 _1338_
*3546 _382_
*3547 _1338_
*3548 _1341_
*3549 _383_
*3550 _1339_
*3551 _1340_
*3552 _384_
*3553 _1340_
*3554 _1341_
*3555 _117_[10]
*3556 _1341_
*3557 _1503_
*3558 _385_
*3559 _1342_
*3560 _1345_
*3561 _386_
*3562 _1343_
*3563 _1344_
*3564 _389_
*3565 _1346_
*3566 _1347_
*3567 _390_
*3568 _1347_
*3569 _1351_
*3570 _391_
*3571 _1348_
*3572 _1349_
*3573 _392_
*3574 _1349_
*3575 _1350_
*3576 _393_
*3577 _1350_
*3578 _1351_
*3579 _394_
*3580 _1351_
*3581 _1354_
*3582 _395_
*3583 _1352_
*3584 _1353_
*3585 _396_
*3586 _1353_
*3587 _1354_
*3588 _117_[11]
*3589 _1354_
*3590 _1504_
*3591 _398_
*3592 _1356_
*3593 _1359_
*3594 _402_
*3595 _1360_
*3596 _1361_
*3597 _403_
*3598 _1361_
*3599 _1365_
*3600 _404_
*3601 _1362_
*3602 _1363_
*3603 _405_
*3604 _1363_
*3605 _1364_
*3606 _406_
*3607 _1364_
*3608 _1365_
*3609 _407_
*3610 _1365_
*3611 _1368_
*3612 _408_
*3613 _1366_
*3614 _1367_
*3615 _409_
*3616 _1367_
*3617 _1368_
*3618 _117_[12]
*3619 _1368_
*3620 _1505_
*3621 _410_
*3622 _1369_
*3623 _1372_
*3624 _415_
*3625 _1374_
*3626 _1375_
*3627 _416_
*3628 _1375_
*3629 _1379_
*3630 _417_
*3631 _1376_
*3632 _1377_
*3633 _418_
*3634 _1377_
*3635 _1378_
*3636 _419_
*3637 _1378_
*3638 _1379_
*3639 _420_
*3640 _1379_
*3641 _1382_
*3642 _421_
*3643 _1380_
*3644 _1381_
*3645 _422_
*3646 _1381_
*3647 _1382_
*3648 _117_[13]
*3649 _1382_
*3650 _1506_
*3651 _423_
*3652 _1383_
*3653 _1385_
*3654 _424_
*3655 _1384_
*3656 _1385_
*3657 _426_
*3658 _1386_
*3659 _1387_
*3660 _427_
*3661 _1387_
*3662 _1391_
*3663 _428_
*3664 _1388_
*3665 _1389_
*3666 _429_
*3667 _1389_
*3668 _1390_
*3669 _430_
*3670 _1390_
*3671 _1391_
*3672 _431_
*3673 _1391_
*3674 _1394_
*3675 _432_
*3676 _1392_
*3677 _1393_
*3678 _433_
*3679 _1393_
*3680 _1394_
*3681 _117_[14]
*3682 _1394_
*3683 _1507_
*3684 _435_
*3685 _1396_
*3686 _1407_
*3687 _436_
*3688 _1397_
*3689 _1398_
*3690 _438_
*3691 _1399_
*3692 _1401_
*3693 _441_
*3694 _1402_
*3695 _1403_
*3696 _442_
*3697 _1403_
*3698 _1406_
*3699 _443_
*3700 _1404_
*3701 _1405_
*3702 _444_
*3703 _1405_
*3704 _1406_
*3705 _445_
*3706 _1406_
*3707 _1407_
*3708 _446_
*3709 _1407_
*3710 _1409_
*3711 _447_
*3712 _1408_
*3713 _1409_
*3714 _117_[15]
*3715 _1409_
*3716 _1508_
*3717 _451_
*3718 _1413_
*3719 _1414_
*3720 _452_
*3721 _1414_
*3722 _1418_
*3723 _453_
*3724 _1415_
*3725 _1416_
*3726 _454_
*3727 _1416_
*3728 _1417_
*3729 _455_
*3730 _1417_
*3731 _1418_
*3732 _456_
*3733 _1418_
*3734 _1421_
*3735 _457_
*3736 _1419_
*3737 _1420_
*3738 _458_
*3739 _1420_
*3740 _1421_
*3741 _117_[16]
*3742 _1421_
*3743 _1509_
*3744 _460_
*3745 _1423_
*3746 _1424_
*3747 _463_
*3748 _1426_
*3749 _1427_
*3750 _464_
*3751 _1427_
*3752 _1431_
*3753 _465_
*3754 _1428_
*3755 _1430_
*3756 _466_
*3757 _1429_
*3758 _1430_
*3759 _467_
*3760 _1430_
*3761 _1431_
*3762 _468_
*3763 _1431_
*3764 _1434_
*3765 _469_
*3766 _1432_
*3767 _1433_
*3768 _470_
*3769 _1433_
*3770 _1434_
*3771 _117_[17]
*3772 _1434_
*3773 _1510_
*3774 _475_
*3775 _1439_
*3776 _1440_
*3777 _476_
*3778 _1440_
*3779 _1444_
*3780 _477_
*3781 _1441_
*3782 _1443_
*3783 _478_
*3784 _1442_
*3785 _1443_
*3786 _479_
*3787 _1443_
*3788 _1444_
*3789 _480_
*3790 _1444_
*3791 _1447_
*3792 _481_
*3793 _1445_
*3794 _1446_
*3795 _482_
*3796 _1446_
*3797 _1447_
*3798 _117_[18]
*3799 _1447_
*3800 _1511_
*3801 _483_
*3802 _1448_
*3803 _1449_
*3804 _487_
*3805 _1452_
*3806 _1453_
*3807 _488_
*3808 _1453_
*3809 _1458_
*3810 _489_
*3811 _1454_
*3812 _1457_
*3813 _490_
*3814 _1455_
*3815 _1457_
*3816 _491_
*3817 _1456_
*3818 _1457_
*3819 _492_
*3820 _1457_
*3821 _1458_
*3822 _493_
*3823 _1458_
*3824 _1461_
*3825 _494_
*3826 _1459_
*3827 _1460_
*3828 _495_
*3829 _1460_
*3830 _1461_
*3831 _117_[19]
*3832 _1461_
*3833 _1512_
*3834 _498_
*3835 _1464_
*3836 _1467_
*3837 _499_
*3838 _1465_
*3839 _1466_
*3840 _500_
*3841 _1466_
*3842 _1467_
*3843 _111_[0]
*3844 _1467_
*3845 _1529_
*3846 _501_
*3847 _1468_
*3848 _1473_
*3849 _502_
*3850 _1469_
*3851 _1472_
*3852 _503_
*3853 _1470_
*3854 _1472_
*3855 _504_
*3856 _1471_
*3857 _1472_
*3858 _505_
*3859 _1472_
*3860 _1473_
*3861 _506_
*3862 _1473_
*3863 _1481_
*3864 _507_
*3865 _1474_
*3866 _1476_
*3867 _508_
*3868 _1475_
*3869 _1476_
*3870 _509_
*3871 _1476_
*3872 _1477_
*3873 _510_
*3874 _1477_
*3875 _1481_
*3876 _512_
*3877 _1479_
*3878 _1480_
*3879 _513_
*3880 _1480_
*3881 _1481_
*3882 _111_[1]
*3883 _1481_
*3884 _1530_
*3885 _514_
*3886 _1482_
*3887 _1483_
*3888 _515_
*3889 _1483_
*3890 _1487_
*3891 _516_
*3892 _1484_
*3893 _1486_
*3894 _517_
*3895 _1485_
*3896 _1486_
*3897 _518_
*3898 _1486_
*3899 _1487_
*3900 _111_[2]
*3901 _1487_
*3902 _1531_
*3903 \u_SPI_HEAD_MOSI_REF_enable_gen_O_enable_mosi\
*3904 _1542_
*3905 _1488_
*3906 _519_
*3907 _1488_
*3908 _1490_
*3909 _521_
*3910 _1491_
*3911 _1492_
*3912 _4_
*3913 _1492_
*3914 _890_
*3915 _523_
*3916 _1532_
*3917 _1533_
*3918 _524_
*3919 _1533_
*3920 _1537_
*3921 _525_
*3922 _1534_
*3923 _1537_
*3924 _527_
*3925 _1536_
*3926 _1537_
*3927 _528_
*3928 _1537_
*3929 _1542_
*3930 _529_
*3931 _1538_
*3932 _1541_
*3933 _531_
*3934 _1540_
*3935 _1541_
*3936 _532_
*3937 _1541_
*3938 _1542_
*3939 _522_
*3940 _1543_
*3941 _1544_
*3942 _548_
*3943 _1551_
*3944 _1553_
*3945 _550_
*3946 _1553_
*3947 _1557_
*3948 _552_
*3949 _1555_
*3950 _1556_
*3951 _553_
*3952 _1556_
*3953 _1557_
*3954 _554_
*3955 _1557_
*3956 _1590_
*3957 _560_
*3958 _1563_
*3959 _1564_
*3960 _561_
*3961 _1564_
*3962 _1570_
*3963 _563_
*3964 _1566_
*3965 _1569_
*3966 _564_
*3967 _1567_
*3968 _1568_
*3969 _565_
*3970 _1568_
*3971 _1569_
*3972 _566_
*3973 _1569_
*3974 _1570_
*3975 _567_
*3976 _1570_
*3977 _1590_
*3978 _569_
*3979 _1572_
*3980 _1577_
*3981 _571_
*3982 _1574_
*3983 _1576_
*3984 _572_
*3985 _1575_
*3986 _1576_
*3987 _573_
*3988 _1576_
*3989 _1577_
*3990 _574_
*3991 _1577_
*3992 _1589_
*3993 _578_
*3994 _1581_
*3995 _1582_
*3996 _579_
*3997 _1582_
*3998 _1588_
*3999 _580_
*4000 _1583_
*4001 _1585_
*4002 _581_
*4003 _1584_
*4004 _1585_
*4005 _582_
*4006 _1585_
*4007 _1588_
*4008 _584_
*4009 _1587_
*4010 _1588_
*4011 _585_
*4012 _1588_
*4013 _1589_
*4014 _586_
*4015 _1589_
*4016 _1590_
*4017 _588_
*4018 _1591_
*4019 _1592_
*4020 _591_
*4021 _1594_
*4022 _1600_
*4023 _593_
*4024 _1596_
*4025 _1597_
*4026 _594_
*4027 _1597_
*4028 _1600_
*4029 _595_
*4030 _1598_
*4031 _1599_
*4032 _596_
*4033 _1599_
*4034 _1600_
*4035 _533_[0]
*4036 _1602_
*4037 _1628_
*4038 _599_
*4039 _1603_
*4040 _1604_
*4041 _533_[1]
*4042 _1604_
*4043 _1629_
*4044 _600_
*4045 _1605_
*4046 _1607_
*4047 _602_
*4048 _1607_
*4049 _1608_
*4050 _533_[2]
*4051 _1608_
*4052 _1630_
*4053 _603_
*4054 _1609_
*4055 _1610_
*4056 _533_[3]
*4057 _1610_
*4058 _1631_
*4059 _604_
*4060 _1611_
*4061 _1614_
*4062 _605_
*4063 _1612_
*4064 _1613_
*4065 _607_
*4066 _1614_
*4067 _1615_
*4068 _533_[4]
*4069 _1615_
*4070 _1632_
*4071 _608_
*4072 _1616_
*4073 _1617_
*4074 _533_[5]
*4075 _1617_
*4076 _1633_
*4077 _535_
*4078 _1618_
*4079 _1619_
*4080 _536_
*4081 _1619_
*4082 _1620_
*4083 _533_[6]
*4084 _1620_
*4085 _1634_
*4086 _537_
*4087 _1621_
*4088 _1626_
*4089 _539_
*4090 _1623_
*4091 _1626_
*4092 _540_
*4093 _1624_
*4094 _1625_
*4095 _541_
*4096 _1625_
*4097 _1626_
*4098 _534_
*4099 _1626_
*4100 _1627_
*4101 _618_
*4102 _1638_
*4103 _1639_
*4104 _619_
*4105 _1639_
*4106 _1640_
*4107 _630_
*4108 _1652_
*4109 _1653_
*4110 _637_
*4111 _1659_
*4112 _1660_
*4113 _639_
*4114 _1661_
*4115 _1670_
*4116 _645_
*4117 _1667_
*4118 _1670_
*4119 _647_
*4120 _1669_
*4121 _1670_
*4122 _612_
*4123 _1670_
*4124 _1996_
*4125 _648_
*4126 _1671_
*4127 _1677_
*4128 _652_
*4129 _1675_
*4130 _1677_
*4131 _653_
*4132 _1676_
*4133 _1677_
*4134 _611_[0]
*4135 _1677_
*4136 _1988_
*4137 _655_
*4138 _1679_
*4139 _1683_
*4140 _657_
*4141 _1681_
*4142 _1682_
*4143 _658_
*4144 _1682_
*4145 _1683_
*4146 _611_[1]
*4147 _1683_
*4148 _1989_
*4149 _662_
*4150 _1687_
*4151 _1690_
*4152 _663_
*4153 _1688_
*4154 _1689_
*4155 _664_
*4156 _1689_
*4157 _1690_
*4158 _611_[2]
*4159 _1690_
*4160 _1990_
*4161 _665_
*4162 _1691_
*4163 _1694_
*4164 _667_
*4165 _1693_
*4166 _1694_
*4167 _611_[3]
*4168 _1694_
*4169 _1991_
*4170 _668_
*4171 _1695_
*4172 _1702_
*4173 _670_
*4174 _1697_
*4175 _1699_
*4176 _671_
*4177 _1698_
*4178 _1699_
*4179 _675_
*4180 _1702_
*4181 _1704_
*4182 _676_
*4183 _1703_
*4184 _1704_
*4185 _611_[4]
*4186 _1704_
*4187 _1992_
*4188 _677_
*4189 _1705_
*4190 _1709_
*4191 _678_
*4192 _1706_
*4193 _1707_
*4194 _679_
*4195 _1707_
*4196 _1709_
*4197 _680_
*4198 _1708_
*4199 _1709_
*4200 _611_[5]
*4201 _1709_
*4202 _1993_
*4203 _681_
*4204 _1710_
*4205 _1719_
*4206 _684_
*4207 _1713_
*4208 _1718_
*4209 _685_
*4210 _1714_
*4211 _1715_
*4212 _686_
*4213 _1715_
*4214 _1716_
*4215 _688_
*4216 _1717_
*4217 _1718_
*4218 _689_
*4219 _1718_
*4220 _1719_
*4221 _611_[6]
*4222 _1719_
*4223 _1994_
*4224 _690_
*4225 _1720_
*4226 _1725_
*4227 _692_
*4228 _1722_
*4229 _1724_
*4230 _693_
*4231 _1723_
*4232 _1724_
*4233 _694_
*4234 _1724_
*4235 _1725_
*4236 _611_[7]
*4237 _1725_
*4238 _1995_
*4239 _697_
*4240 _1728_
*4241 _1729_
*4242 _698_
*4243 _1729_
*4244 _1734_
*4245 _702_
*4246 _1733_
*4247 _1734_
*4248 _703_
*4249 _1734_
*4250 _1743_
*4251 _704_
*4252 _1735_
*4253 _1743_
*4254 _707_
*4255 _1738_
*4256 _1739_
*4257 _708_
*4258 _1739_
*4259 _1742_
*4260 _710_
*4261 _1741_
*4262 _1742_
*4263 _711_
*4264 _1742_
*4265 _1743_
*4266 _713_
*4267 _1744_
*4268 _1747_
*4269 _715_
*4270 _1746_
*4271 _1747_
*4272 _613_[0]
*4273 _1747_
*4274 _1969_
*4275 _717_
*4276 _1749_
*4277 _1750_
*4278 _718_
*4279 _1750_
*4280 _1751_
*4281 _613_[1]
*4282 _1751_
*4283 _1970_
*4284 _722_
*4285 _1755_
*4286 _1756_
*4287 _613_[2]
*4288 _1756_
*4289 _1971_
*4290 _724_
*4291 _1758_
*4292 _1759_
*4293 _613_[3]
*4294 _1759_
*4295 _1972_
*4296 _728_
*4297 _1763_
*4298 _1764_
*4299 _729_
*4300 _1764_
*4301 _1765_
*4302 _613_[4]
*4303 _1765_
*4304 _1973_
*4305 _731_
*4306 _1767_
*4307 _1768_
*4308 _732_
*4309 _1768_
*4310 _1769_
*4311 _613_[5]
*4312 _1769_
*4313 _1974_
*4314 _734_
*4315 _1771_
*4316 _1773_
*4317 _735_
*4318 _1772_
*4319 _1773_
*4320 _613_[6]
*4321 _1773_
*4322 _1975_
*4323 _737_
*4324 _1775_
*4325 _1777_
*4326 _740_
*4327 _1778_
*4328 _1779_
*4329 _613_[7]
*4330 _1779_
*4331 _1976_
*4332 _741_
*4333 _1780_
*4334 _1781_
*4335 _743_
*4336 _1782_
*4337 _1785_
*4338 _744_
*4339 _1783_
*4340 _1784_
*4341 _745_
*4342 _1784_
*4343 _1785_
*4344 _613_[8]
*4345 _1785_
*4346 _1977_
*4347 _749_
*4348 _1789_
*4349 _1790_
*4350 _750_
*4351 _1790_
*4352 _1791_
*4353 _613_[9]
*4354 _1791_
*4355 _1978_
*4356 _752_
*4357 _1793_
*4358 _1794_
*4359 _613_[10]
*4360 _1794_
*4361 _1979_
*4362 _753_
*4363 _1795_
*4364 _1798_
*4365 _755_
*4366 _1797_
*4367 _1798_
*4368 _613_[11]
*4369 _1798_
*4370 _1980_
*4371 _756_
*4372 _1799_
*4373 _1807_
*4374 _757_
*4375 _1800_
*4376 _1801_
*4377 _761_
*4378 _1804_
*4379 _1805_
*4380 _763_
*4381 _1806_
*4382 _1807_
*4383 _613_[12]
*4384 _1807_
*4385 _1981_
*4386 _764_
*4387 _1808_
*4388 _1811_
*4389 _766_
*4390 _1810_
*4391 _1811_
*4392 _613_[13]
*4393 _1811_
*4394 _1982_
*4395 _767_
*4396 _1812_
*4397 _1813_
*4398 _769_
*4399 _1814_
*4400 _1817_
*4401 _771_
*4402 _1816_
*4403 _1817_
*4404 _613_[14]
*4405 _1817_
*4406 _1983_
*4407 _772_
*4408 _1818_
*4409 _1820_
*4410 _773_
*4411 _1819_
*4412 _1820_
*4413 _613_[15]
*4414 _1820_
*4415 _1984_
*4416 _779_
*4417 _1826_
*4418 _1827_
*4419 _780_
*4420 _1827_
*4421 _1828_
*4422 _781_
*4423 _1828_
*4424 _1829_
*4425 _610_[0]
*4426 _1829_
*4427 _1985_
*4428 _784_
*4429 _1832_
*4430 _1833_
*4431 _785_
*4432 _1833_
*4433 _1835_
*4434 _786_
*4435 _1834_
*4436 _1835_
*4437 _610_[1]
*4438 _1835_
*4439 _1986_
*4440 _787_
*4441 _1836_
*4442 _1839_
*4443 _789_
*4444 _1838_
*4445 _1839_
*4446 _790_
*4447 _1839_
*4448 _1841_
*4449 _791_
*4450 _1840_
*4451 _1841_
*4452 _610_[2]
*4453 _1841_
*4454 _1987_
*4455 ext_fifo_data[0]
*4456 _1844_
*4457 _794_
*4458 _1844_
*4459 _1845_
*4460 _614_[0]
*4461 _1845_
*4462 _1961_
*4463 ext_fifo_data[1]
*4464 _1847_
*4465 _796_
*4466 _1847_
*4467 _1848_
*4468 _614_[1]
*4469 _1848_
*4470 _1962_
*4471 _797_
*4472 _1849_
*4473 _1851_
*4474 ext_fifo_data[2]
*4475 _1850_
*4476 _798_
*4477 _1850_
*4478 _1851_
*4479 _614_[2]
*4480 _1851_
*4481 _1963_
*4482 _799_
*4483 _1852_
*4484 _1854_
*4485 ext_fifo_data[3]
*4486 _1853_
*4487 _800_
*4488 _1853_
*4489 _1854_
*4490 _614_[3]
*4491 _1854_
*4492 _1964_
*4493 ext_fifo_data[4]
*4494 _1856_
*4495 _802_
*4496 _1856_
*4497 _1857_
*4498 _614_[4]
*4499 _1857_
*4500 _1965_
*4501 _803_
*4502 _1858_
*4503 _1860_
*4504 ext_fifo_data[5]
*4505 _1859_
*4506 _804_
*4507 _1859_
*4508 _1860_
*4509 _614_[5]
*4510 _1860_
*4511 _1966_
*4512 _805_
*4513 _1861_
*4514 _1863_
*4515 ext_fifo_data[6]
*4516 _1862_
*4517 _806_
*4518 _1862_
*4519 _1863_
*4520 _614_[6]
*4521 _1863_
*4522 _1967_
*4523 \u_auto_data_inst_y_register\[7]
*4524 _1968_
*4525 _1864_
*4526 ext_fifo_data[7]
*4527 _1865_
*4528 _808_
*4529 _1865_
*4530 _1866_
*4531 _614_[7]
*4532 _1866_
*4533 _1968_
*4534 _810_
*4535 _1868_
*4536 _1879_
*4537 _811_
*4538 _1869_
*4539 _1870_
*4540 _815_
*4541 _1873_
*4542 _1874_
*4543 _816_
*4544 _1874_
*4545 _1878_
*4546 _817_
*4547 _1875_
*4548 _1876_
*4549 _819_
*4550 _1877_
*4551 _1878_
*4552 _820_
*4553 _1878_
*4554 _1879_
*4555 _609_[0]
*4556 _1879_
*4557 _1997_
*4558 _822_
*4559 _1881_
*4560 _1886_
*4561 _825_
*4562 _1884_
*4563 _1885_
*4564 _826_
*4565 _1885_
*4566 _1886_
*4567 _609_[1]
*4568 _1886_
*4569 _1998_
*4570 _827_
*4571 _1888_
*4572 _1889_
*4573 _828_
*4574 _1889_
*4575 _1894_
*4576 _831_
*4577 _1892_
*4578 _1893_
*4579 _832_
*4580 _1893_
*4581 _1894_
*4582 _609_[2]
*4583 _1894_
*4584 _1999_
*4585 _833_
*4586 _1895_
*4587 _1897_
*4588 _834_
*4589 _1896_
*4590 _1897_
*4591 _609_[3]
*4592 _1897_
*4593 _2000_
*4594 _836_
*4595 _1900_
*4596 _1901_
*4597 _837_
*4598 _1901_
*4599 _1902_
*4600 _839_
*4601 _1905_
*4602 _1908_
*4603 _840_
*4604 _1906_
*4605 _1907_
*4606 _842_
*4607 _1908_
*4608 _1909_
*4609 _843_
*4610 _1909_
*4611 _1928_
*4612 _845_
*4613 _1911_
*4614 _1918_
*4615 _846_
*4616 _1912_
*4617 _1918_
*4618 _847_
*4619 _1913_
*4620 _1917_
*4621 _848_
*4622 _1914_
*4623 _1917_
*4624 _849_
*4625 _1915_
*4626 _1917_
*4627 _850_
*4628 _1916_
*4629 _1917_
*4630 _851_
*4631 _1917_
*4632 _1918_
*4633 _852_
*4634 _1918_
*4635 _1927_
*4636 _853_
*4637 _1919_
*4638 _1922_
*4639 _854_
*4640 _1920_
*4641 _1922_
*4642 _855_
*4643 _1921_
*4644 _1922_
*4645 _856_
*4646 _1922_
*4647 _1926_
*4648 _857_
*4649 _1923_
*4650 _1925_
*4651 _858_
*4652 _1924_
*4653 _1925_
*4654 _859_
*4655 _1925_
*4656 _1926_
*4657 _860_
*4658 _1926_
*4659 _1927_
*4660 _862_
*4661 _1929_
*4662 _1931_
*4663 _863_
*4664 _1930_
*4665 _1931_
*4666 _864_
*4667 _1931_
*4668 _1932_
*4669 _865_
*4670 _1932_
*4671 _1933_
*4672 _866_
*4673 _1934_
*4674 _1935_
*4675 _867_
*4676 _1935_
*4677 _1936_
*4678 _868_
*4679 _1936_
*4680 _1937_
*4681 _869_
*4682 _1938_
*4683 _1939_
*4684 _870_
*4685 _1939_
*4686 _1940_
*4687 _871_
*4688 _1940_
*4689 _1941_
*4690 _872_
*4691 _1942_
*4692 _1943_
*4693 _873_
*4694 _1943_
*4695 _1944_
*4696 _874_
*4697 _1944_
*4698 _1945_
*4699 _875_
*4700 _1946_
*4701 _1948_
*4702 _876_
*4703 _1947_
*4704 _1948_
*4705 _877_
*4706 _1948_
*4707 _1949_
*4708 _878_
*4709 _1949_
*4710 _1950_
*4711 _879_
*4712 _1951_
*4713 _1953_
*4714 _880_
*4715 _1952_
*4716 _1953_
*4717 _881_
*4718 _1953_
*4719 _1954_
*4720 _882_
*4721 _1954_
*4722 _1955_
*4723 _883_
*4724 _1956_
*4725 _1957_
*4726 _884_
*4727 _1957_
*4728 _1958_
*4729 _885_
*4730 _1958_
*4731 _1959_
*4732 RESX
*4733 _886_
*4734 SPI_cs
*4735 _887_
*4736 SPI_dcx
*4737 _888_
*4738 SPI_out
*4739 _889_
*4740 SPI_sclk
*4741 _890_
*4742 ext_fifo_read_en
*4743 _891_
*4744 _93_
*4745 _904_
*4746 _905_
*4747 _95_
*4748 _907_
*4749 _913_
*4750 _98_
*4751 _910_
*4752 _911_
*4753 _100_
*4754 _912_
*4755 _913_
*4756 _102_
*4757 _917_
*4758 _925_
*4759 _103_
*4760 _918_
*4761 _920_
*4762 _104_
*4763 _919_
*4764 _920_
*4765 _105_
*4766 _920_
*4767 _925_
*4768 _106_
*4769 _921_
*4770 _924_
*4771 _108_
*4772 _923_
*4773 _924_
*4774 _109_
*4775 _924_
*4776 _925_
*4777 _17_
*4778 _926_
*4779 _927_
*4780 _18_
*4781 _928_
*4782 _929_
*4783 _23_
*4784 _934_
*4785 _939_
*4786 _24_
*4787 _935_
*4788 _937_
*4789 _25_
*4790 _936_
*4791 _937_
*4792 _26_
*4793 _937_
*4794 _938_
*4795 _27_
*4796 _938_
*4797 _939_
*4798 _29_
*4799 _941_
*4800 _947_
*4801 _30_
*4802 _942_
*4803 _945_
*4804 _31_
*4805 _943_
*4806 _945_
*4807 _32_
*4808 _944_
*4809 _945_
*4810 _33_
*4811 _945_
*4812 _946_
*4813 _34_
*4814 _946_
*4815 _947_
*4816 _35_
*4817 _948_
*4818 _953_
*4819 _36_
*4820 _949_
*4821 _951_
*4822 _37_
*4823 _950_
*4824 _951_
*4825 _38_
*4826 _951_
*4827 _952_
*4828 _39_
*4829 _952_
*4830 _953_
*4831 _40_
*4832 _954_
*4833 _959_
*4834 _41_
*4835 _955_
*4836 _957_
*4837 _42_
*4838 _956_
*4839 _957_
*4840 _43_
*4841 _957_
*4842 _958_
*4843 _44_
*4844 _958_
*4845 _959_
*4846 _45_
*4847 _960_
*4848 _965_
*4849 _46_
*4850 _961_
*4851 _963_
*4852 _47_
*4853 _962_
*4854 _963_
*4855 _48_
*4856 _963_
*4857 _964_
*4858 _49_
*4859 _964_
*4860 _965_
*4861 _50_
*4862 _966_
*4863 _972_
*4864 _51_
*4865 _967_
*4866 _970_
*4867 _52_
*4868 _968_
*4869 _970_
*4870 _53_
*4871 _969_
*4872 _970_
*4873 _54_
*4874 _970_
*4875 _971_
*4876 _55_
*4877 _971_
*4878 _972_
*4879 _56_
*4880 _973_
*4881 _979_
*4882 _57_
*4883 _974_
*4884 _978_
*4885 _58_
*4886 _975_
*4887 _977_
*4888 _59_
*4889 _976_
*4890 _977_
*4891 _60_
*4892 _977_
*4893 _978_
*4894 _61_
*4895 _978_
*4896 _979_
*4897 _62_
*4898 _980_
*4899 _988_
*4900 _63_
*4901 _981_
*4902 _983_
*4903 _64_
*4904 _982_
*4905 _983_
*4906 _65_
*4907 _983_
*4908 _987_
*4909 _66_
*4910 _984_
*4911 _986_
*4912 _67_
*4913 _985_
*4914 _986_
*4915 _68_
*4916 _986_
*4917 _987_
*4918 _69_
*4919 _987_
*4920 _988_
*4921 _70_
*4922 _989_
*4923 _992_
*4924 _72_
*4925 _991_
*4926 _992_
*4927 _73_
*4928 _993_
*4929 _996_
*4930 _75_
*4931 _995_
*4932 _996_

*PORTS
*228 I
*451 I
*2481 I
*2808 I
*4455 I
*4463 I
*4474 I
*4485 I
*4493 I
*4504 I
*4515 I
*4526 I
*4732 O
*4734 O
*4736 O
*4738 O
*4740 O
*4742 O

*D_NET *1 0.0191592
*CONN
*I *2:Q O *D _1010
*I *3:A I *L 0
*I *4:A I *L 0
*I *5:A I *L 0
*I *6:A I *L 0
*I *7:A I *L 0
*I *8:A I *L 0
*I *9:A I *L 0
*I *10:A I *L 0
*I *11:A I *L 0
*I *12:A I *L 0
*I *13:A I *L 0
*I *14:A I *L 0
*I *15:A I *L 0
*I *16:C I *L 0
*I *17:A I *L 0
*I *18:A I *L 0
*CAP
1 1_1 0.000252
2 1_2 0.000252
3 1_3 0.0010008
4 1_4 0.0010224
5 1_5 0.0001512
6 1_6 0.00054
7 1_7 0.0001512
8 1_8 0.001152
9 1_9 5.04e-05
10 1_10 0.0002016
11 1_11 0.0005544
12 1_12 0.0007848
13 1_13 0.0003456
14 1_14 0.0014832
15 1_15 0.00036
16 1_16 0.0004392
17 1_17 0.0003528
18 1_18 0.0012528
19 1_19 0.0008064
20 1_20 0.0001512
21 1_21 0.0012888
22 1_22 0.001332
23 1_23 0.0007488
24 1_24 0.0001368
25 1_25 0.0006048
26 1_26 3.6e-05
27 1_27 0.0005328
28 1_28 0.0014832
29 1_29 0.000108
30 1_30 0.001584
*RES
1 *2:Q 1_1 1.28571
2 1_1 1_2 0.875
3 1_2 1_3 4.87143
4 1_3 1_4 4.04286
5 1_4 1_5 0.771429
6 1_5 *3:A 0
7 1_4 1_6 1.875
8 1_6 1_7 0.771429
9 1_7 *4:A 0
10 1_6 1_8 4
11 1_8 1_9 0.257143
12 1_9 1_10 1.02857
13 1_10 *5:A 0
14 1_9 1_11 2.82857
15 1_11 *6:A 0
16 1_8 1_12 3.71071
17 1_12 1_13 1.52857
18 1_13 *7:A 0
19 1_12 1_14 7.03929
20 1_14 1_15 1.41429
21 1_15 *8:A 0
22 1_14 1_16 2.18214
23 1_16 1_17 1.38929
24 1_17 *9:A 0
25 1_16 1_18 4.51429
26 1_18 *10:A 0
27 1_3 1_19 4.11429
28 1_19 1_20 0.771429
29 1_20 *11:A 0
30 1_19 1_21 5.05
31 1_21 *12:A 0
32 1_21 1_22 6.26786
33 1_22 1_23 2.76429
34 1_23 *13:A 0
35 1_22 1_24 0.639286
36 1_24 *14:A 0
37 1_2 1_25 2.675
38 1_25 1_26 0.125
39 1_26 *15:A 0
40 1_26 1_27 2.01429
41 1_27 *16:C 0
42 1_1 1_28 5.80714
43 1_28 1_29 0.375
44 1_29 *17:A 0
45 1_28 1_30 7.55357
46 1_30 *18:A 0
*END
*D_NET *19 0.0193248
*CONN
*I *20:Y O *D _1031
*I *21:B I *L 0
*I *22:B I *L 0
*I *23:B I *L 0
*I *24:A I *L 0
*I *25:A I *L 0
*I *26:A I *L 0
*I *27:A I *L 0
*I *28:A I *L 0
*I *29:A I *L 0
*I *30:A I *L 0
*I *31:A I *L 0
*I *32:A I *L 0
*I *33:B I *L 0
*I *34:B I *L 0
*I *35:A I *L 0
*I *36:A I *L 0
*CAP
1 19_1 0.002232
2 19_2 0.0002952
3 19_3 0.0007056
4 19_4 0.000144
5 19_5 0.0001512
6 19_6 0.0010872
7 19_7 0.000252
8 19_8 0.00054
9 19_9 0.0012816
10 19_10 0.0001008
11 19_11 0.000288
12 19_12 0.000108
13 19_13 0.0001008
14 19_14 0.00036
15 19_15 0.0001008
16 19_16 0.00036
17 19_17 0.0001008
18 19_18 0.000252
19 19_19 0.0001008
20 19_20 0.000576
21 19_21 0.0001008
22 19_22 0.0004248
23 19_23 0.0006552
24 19_24 0.0023472
25 19_25 0.0014976
26 19_26 0.0004032
27 19_27 0.0014184
28 19_28 0.0003528
29 19_29 0.002988
*RES
1 *20:Y 19_1 8.98214
2 19_1 19_2 1.27143
3 19_2 19_3 3.6
4 19_3 *21:B 0
5 19_2 19_4 0.5
6 19_4 *22:B 0
7 19_1 19_5 0.771429
8 19_5 *23:B 0
9 19_1 19_6 4.43214
10 19_6 19_7 1.28571
11 19_7 *24:A 0
12 19_6 19_8 1.875
13 19_8 19_9 4.77857
14 19_9 19_10 0.514286
15 19_10 *25:A 0
16 19_9 19_11 1
17 19_11 19_12 0.375
18 19_12 19_13 0.514286
19 19_13 *26:A 0
20 19_12 19_14 1.25
21 19_14 19_15 0.514286
22 19_15 *27:A 0
23 19_14 19_16 1.25
24 19_16 19_17 0.514286
25 19_17 *28:A 0
26 19_16 19_18 0.875
27 19_18 19_19 0.514286
28 19_19 *29:A 0
29 19_18 19_20 2
30 19_20 19_21 0.514286
31 19_21 *30:A 0
32 19_20 19_22 1.63929
33 19_22 *31:A 0
34 19_11 19_23 3.34286
35 19_23 *32:A 0
36 19_8 19_24 11.2714
37 19_24 *33:B 0
38 19_24 19_25 7.17143
39 19_25 19_26 2.05714
40 19_26 *34:B 0
41 19_25 19_27 5.00714
42 19_27 19_28 1.8
43 19_28 *35:A 0
44 19_27 19_29 12.0179
45 19_29 *36:A 0
*END
*D_NET *37 0.0426528
*CONN
*I *38:Y O *D _1214
*I *39:B I *L 0
*I *40:B I *L 0
*I *41:B I *L 0
*I *42:B I *L 0
*I *43:B I *L 0
*I *44:B I *L 0
*I *45:B I *L 0
*I *46:B I *L 0
*I *47:B I *L 0
*I *48:B I *L 0
*I *49:B I *L 0
*I *50:B I *L 0
*I *51:B I *L 0
*I *52:B I *L 0
*I *53:B I *L 0
*I *54:B I *L 0
*CAP
1 37_1 0.0021528
2 37_2 0.0019008
3 37_3 0.0007056
4 37_4 0.0027936
5 37_5 0.000504
6 37_6 0.000252
7 37_7 0.001476
8 37_8 0.0013896
9 37_9 0.0026568
10 37_10 0.002988
11 37_11 0.000252
12 37_12 0.0020376
13 37_13 0.0023904
14 37_14 0.0010656
15 37_15 0.0003528
16 37_16 0.0017568
17 37_17 0.0013104
18 37_18 0.00054
19 37_19 0.001548
20 37_20 0.001224
21 37_21 0.000108
22 37_22 0.0021456
23 37_23 0.0007776
24 37_24 0.0014616
25 37_25 0.0006192
26 37_26 0.0034128
27 37_27 0.0018072
28 37_28 0.001044
29 37_29 0.00198
*RES
1 *38:Y 37_1 9.69286
2 37_1 *39:B 0
3 37_1 37_2 8.81786
4 37_2 37_3 2.77857
5 37_3 *40:B 0
6 37_2 37_4 13.725
7 37_4 37_5 1.75
8 37_5 37_6 1.28571
9 37_6 *41:B 0
10 37_5 37_7 5.125
11 37_7 37_8 6.79643
12 37_8 *42:B 0
13 37_7 37_9 10.2107
14 37_9 *43:B 0
15 37_4 37_10 10.375
16 37_10 37_11 1.28571
17 37_11 *44:B 0
18 37_10 37_12 8.63571
19 37_12 *45:B 0
20 37_12 37_13 9.20357
21 37_13 37_14 4.02857
22 37_14 37_15 1.8
23 37_15 *46:B 0
24 37_14 37_16 6.675
25 37_16 *47:B 0
26 37_13 37_17 6.68571
27 37_17 37_18 2.28571
28 37_18 *48:B 0
29 37_17 37_19 7.42857
30 37_19 37_20 5.07143
31 37_20 37_21 0.375
32 37_21 *49:B 0
33 37_20 37_22 9.01071
34 37_22 37_23 3.43929
35 37_23 *50:B 0
36 37_22 37_24 7.04643
37 37_24 37_25 2.31429
38 37_25 *51:B 0
39 37_24 37_26 13.575
40 37_26 *52:B 0
41 37_19 37_27 6.52143
42 37_27 37_28 4.44643
43 37_28 *53:B 0
44 37_27 37_29 9.75
45 37_29 *54:B 0
*END
*D_NET *55 0.0423
*CONN
*I *56:Y O *D _1202
*I *57:C I *L 0
*I *58:C I *L 0
*I *59:C I *L 0
*I *60:C I *L 0
*I *61:C I *L 0
*I *62:C I *L 0
*I *63:C I *L 0
*I *64:C I *L 0
*I *65:C I *L 0
*I *66:D I *L 0
*I *67:B I *L 0
*I *68:D I *L 0
*I *69:C I *L 0
*I *70:C I *L 0
*I *71:C I *L 0
*CAP
1 55_1 0.00324
2 55_2 0.0006984
3 55_3 0.000504
4 55_4 0.0004536
5 55_5 0.0034632
6 55_6 0.0027432
7 55_7 0.0001008
8 55_8 0.002916
9 55_9 0.000504
10 55_10 0.0005832
11 55_11 0.0030888
12 55_12 0.0001008
13 55_13 0.0018144
14 55_14 0.0006552
15 55_15 0.0018648
16 55_16 0.001512
17 55_17 0.0010512
18 55_18 0.0038088
19 55_19 0.000288
20 55_20 0.000252
21 55_21 0.0012384
22 55_22 0.0021888
23 55_23 0.0014544
24 55_24 0.001728
25 55_25 0.0021168
26 55_26 0.0009648
27 55_27 0.0001008
28 55_28 0.0028656
*RES
1 *56:Y 55_1 12.3179
2 55_1 *57:C 0
3 55_1 55_2 2.91786
4 55_2 55_3 1.75
5 55_3 55_4 2.31429
6 55_4 *58:C 0
7 55_3 55_5 13.5036
8 55_5 *59:C 0
9 55_2 55_6 13.4679
10 55_6 55_7 0.514286
11 55_7 *60:C 0
12 55_6 55_8 13.4107
13 55_8 55_9 2.57143
14 55_9 55_10 2.27143
15 55_10 *61:C 0
16 55_9 55_11 12.0393
17 55_11 55_12 0.514286
18 55_12 *62:C 0
19 55_11 55_13 6.79286
20 55_13 55_14 2.93214
21 55_14 *63:C 0
22 55_13 55_15 8.69286
23 55_15 *64:C 0
24 55_8 55_16 5.25
25 55_16 55_17 5.12857
26 55_17 *65:C 0
27 55_16 55_18 15.8536
28 55_18 55_19 1
29 55_19 55_20 1.28571
30 55_20 *66:D 0
31 55_19 55_21 4.38214
32 55_21 55_22 10.6393
33 55_22 *67:B 0
34 55_21 55_23 5.54286
35 55_23 55_24 6.41071
36 55_24 *68:D 0
37 55_23 55_25 10.1429
38 55_25 *69:C 0
39 55_18 55_26 4.5
40 55_26 55_27 0.514286
41 55_27 *70:C 0
42 55_26 55_28 13.1536
43 55_28 *71:C 0
*END
*D_NET *72 0.0163224
*CONN
*I *73:Y O *D CLKBUF1
*I *74:CLK I *L 0
*I *75:CLK I *L 0
*I *76:CLK I *L 0
*I *77:CLK I *L 0
*I *78:CLK I *L 0
*I *79:CLK I *L 0
*I *80:CLK I *L 0
*I *81:CLK I *L 0
*I *82:CLK I *L 0
*I *83:CLK I *L 0
*I *84:CLK I *L 0
*CAP
1 72_1 0.0009504
2 72_2 0.0006912
3 72_3 0.0002808
4 72_4 0.000108
5 72_5 0.0003024
6 72_6 0.0001008
7 72_7 0.0020736
8 72_8 0.001188
9 72_9 0.000504
10 72_10 0.000252
11 72_11 0.0009
12 72_12 0.000108
13 72_13 0.000252
14 72_14 0.000684
15 72_15 0.0019584
16 72_16 0.0018504
17 72_17 0.0001512
18 72_18 0.0019152
19 72_19 0.000252
20 72_20 0.0018
*RES
1 *73:Y 72_1 4.61429
2 72_1 *74:CLK 0
3 72_1 72_2 3.46786
4 72_2 72_3 1.13929
5 72_3 *75:CLK 0
6 72_2 72_4 0.375
7 72_4 72_5 1.13214
8 72_5 72_6 0.514286
9 72_6 *76:CLK 0
10 72_5 72_7 7.93929
11 72_7 *77:CLK 0
12 72_4 72_8 5.76786
13 72_8 72_9 2.57143
14 72_9 *78:CLK 0
15 72_8 72_10 0.875
16 72_10 72_11 3.125
17 72_11 72_12 0.375
18 72_12 72_13 1.28571
19 72_13 *79:CLK 0
20 72_12 72_14 3.19643
21 72_14 *80:CLK 0
22 72_11 72_15 8.93571
23 72_15 *81:CLK 0
24 72_10 72_16 8.56071
25 72_16 72_17 0.771429
26 72_17 *82:CLK 0
27 72_16 72_18 9.77143
28 72_18 72_19 1.28571
29 72_19 *83:CLK 0
30 72_18 72_20 8.30357
31 72_20 *84:CLK 0
*END
*D_NET *85 0.020484
*CONN
*I *86:Y O *D CLKBUF1
*I *87:CLK I *L 0
*I *88:CLK I *L 0
*I *89:CLK I *L 0
*I *90:CLK I *L 0
*I *91:CLK I *L 0
*I *92:CLK I *L 0
*I *93:CLK I *L 0
*I *94:CLK I *L 0
*I *95:CLK I *L 0
*I *96:CLK I *L 0
*I *97:CLK I *L 0
*CAP
1 85_1 0.0034776
2 85_2 0.0001512
3 85_3 0.0010152
4 85_4 0.000252
5 85_5 0.0014184
6 85_6 0.000252
7 85_7 0.005796
8 85_8 3.6e-05
9 85_9 0.000144
10 85_10 0.0018864
11 85_11 0.0004032
12 85_12 0.0003024
13 85_13 0.0006336
14 85_14 0.000756
15 85_15 0.0003528
16 85_16 0.000576
17 85_17 0.0006552
18 85_18 0.000144
19 85_19 0.002232
*RES
1 *86:Y 85_1 15.2786
2 85_1 85_2 0.771429
3 85_2 *87:CLK 0
4 85_1 85_3 4.18214
5 85_3 85_4 1.28571
6 85_4 *88:CLK 0
7 85_3 85_5 5.00714
8 85_5 85_6 1.28571
9 85_6 *89:CLK 0
10 85_5 85_7 21.7679
11 85_7 85_8 0.125
12 85_8 *90:CLK 0
13 85_8 85_9 0.5
14 85_9 *91:CLK 0
15 85_8 85_10 9.09643
16 85_10 85_11 2.05714
17 85_11 85_12 1.54286
18 85_12 *92:CLK 0
19 85_11 85_13 2.52857
20 85_13 *93:CLK 0
21 85_10 85_14 3.03571
22 85_14 85_15 1.8
23 85_15 *94:CLK 0
24 85_14 85_16 2
25 85_16 85_17 2.93214
26 85_17 *95:CLK 0
27 85_17 85_18 0.5
28 85_18 *96:CLK 0
29 85_16 85_19 10.625
30 85_19 *97:CLK 0
*END
*D_NET *98 0.0166536
*CONN
*I *99:Y O *D CLKBUF1
*I *100:CLK I *L 0
*I *101:CLK I *L 0
*I *102:CLK I *L 0
*I *103:CLK I *L 0
*I *104:CLK I *L 0
*I *105:CLK I *L 0
*I *106:CLK I *L 0
*I *107:CLK I *L 0
*I *108:CLK I *L 0
*I *109:CLK I *L 0
*I *110:CLK I *L 0
*CAP
1 98_1 0.0007488
2 98_2 3.6e-05
3 98_3 0.000144
4 98_4 0.0004968
5 98_5 0.000108
6 98_6 0.0001008
7 98_7 0.0008568
8 98_8 0.0021744
9 98_9 0.0001512
10 98_10 0.0014256
11 98_11 0.0008064
12 98_12 0.000504
13 98_13 0.0008424
14 98_14 0.0004248
15 98_15 0.0013968
16 98_16 0.0012528
17 98_17 0.0020088
18 98_18 0.0006912
19 98_19 0.002484
*RES
1 *99:Y 98_1 3.58571
2 98_1 98_2 0.125
3 98_2 98_3 0.5
4 98_3 *100:CLK 0
5 98_3 98_4 1.88929
6 98_4 98_5 0.375
7 98_5 98_6 0.514286
8 98_6 *101:CLK 0
9 98_5 98_7 3.13929
10 98_7 *102:CLK 0
11 98_4 98_8 10.6714
12 98_8 98_9 0.771429
13 98_9 *103:CLK 0
14 98_8 98_10 6.51071
15 98_10 98_11 3.70357
16 98_11 *104:CLK 0
17 98_10 98_12 2.57143
18 98_12 98_13 4.23929
19 98_13 98_14 1.63929
20 98_14 *105:CLK 0
21 98_13 98_15 5.01429
22 98_15 *106:CLK 0
23 98_12 98_16 4.51429
24 98_16 *107:CLK 0
25 98_2 98_17 8.37143
26 98_17 *108:CLK 0
27 98_1 98_18 2.64643
28 98_18 *109:CLK 0
29 98_1 98_19 11.0893
30 98_19 *110:CLK 0
*END
*D_NET *111 0.021636
*CONN
*I *112:Y O *D CLKBUF1
*I *113:CLK I *L 0
*I *114:CLK I *L 0
*I *115:CLK I *L 0
*I *116:CLK I *L 0
*I *117:CLK I *L 0
*I *118:CLK I *L 0
*I *119:CLK I *L 0
*I *120:CLK I *L 0
*I *121:CLK I *L 0
*I *122:CLK I *L 0
*I *123:CLK I *L 0
*CAP
1 111_1 0.0009288
2 111_2 0.0010944
3 111_3 0.0014472
4 111_4 0.000144
5 111_5 0.000252
6 111_6 0.0030744
7 111_7 0.0002448
8 111_8 0.0015696
9 111_9 0.001512
10 111_10 0.0009504
11 111_11 0.0001512
12 111_12 0.002916
13 111_13 0.0002016
14 111_14 0.000792
15 111_15 0.0002016
16 111_16 0.002988
17 111_17 0.0021312
18 111_18 0.00018
19 111_19 0.000288
20 111_20 3.6e-05
21 111_21 0.0005328
*RES
1 *112:Y 111_1 4.21071
2 111_1 111_2 4.29286
3 111_2 *113:CLK 0
4 111_1 111_3 7.325
5 111_3 111_4 0.5
6 111_4 111_5 1.28571
7 111_5 *114:CLK 0
8 111_4 111_6 13.2214
9 111_6 111_7 1.01429
10 111_7 *115:CLK 0
11 111_6 111_8 7.83214
12 111_8 *116:CLK 0
13 111_3 111_9 6.89286
14 111_9 111_10 3.38214
15 111_10 111_11 0.771429
16 111_11 *117:CLK 0
17 111_10 111_12 10.9464
18 111_12 111_13 1.02857
19 111_13 *118:CLK 0
20 111_12 111_14 2.75
21 111_14 111_15 1.02857
22 111_15 *119:CLK 0
23 111_14 111_16 13.0036
24 111_16 *120:CLK 0
25 111_9 111_17 10.5214
26 111_17 111_18 0.625
27 111_18 *121:CLK 0
28 111_17 111_19 1
29 111_19 111_20 0.125
30 111_20 *122:CLK 0
31 111_20 111_21 2.01429
32 111_21 *123:CLK 0
*END
*D_NET *124 0.0150912
*CONN
*I *125:Y O *D CLKBUF1
*I *126:CLK I *L 0
*I *127:CLK I *L 0
*I *128:CLK I *L 0
*I *129:CLK I *L 0
*I *130:CLK I *L 0
*I *131:CLK I *L 0
*I *132:CLK I *L 0
*I *133:CLK I *L 0
*I *134:CLK I *L 0
*I *135:CLK I *L 0
*I *136:CLK I *L 0
*CAP
1 124_1 0.000288
2 124_2 7.2e-05
3 124_3 5.04e-05
4 124_4 0.0006552
5 124_5 0.0001008
6 124_6 0.0010728
7 124_7 0.00126
8 124_8 0.000252
9 124_9 0.001188
10 124_10 0.000504
11 124_11 0.000252
12 124_12 0.000504
13 124_13 0.000504
14 124_14 0.0024048
15 124_15 0.0011448
16 124_16 0.000396
17 124_17 0.0010944
18 124_18 0.000252
19 124_19 0.0010224
20 124_20 0.0020736
*RES
1 *125:Y 124_1 1
2 124_1 124_2 0.25
3 124_2 *126:CLK 0
4 124_1 124_3 0.257143
5 124_3 124_4 3.34286
6 124_4 124_5 0.514286
7 124_5 *127:CLK 0
8 124_4 124_6 3.88929
9 124_6 *128:CLK 0
10 124_3 124_7 6.01786
11 124_7 124_8 1.28571
12 124_8 *129:CLK 0
13 124_7 124_9 4.125
14 124_9 124_10 2.57143
15 124_10 *130:CLK 0
16 124_9 124_11 0.875
17 124_11 124_12 1.75
18 124_12 124_13 2.57143
19 124_13 *131:CLK 0
20 124_12 124_14 10.9786
21 124_14 *132:CLK 0
22 124_11 124_15 5.78214
23 124_15 124_16 1.375
24 124_16 *133:CLK 0
25 124_16 124_17 4.29286
26 124_17 124_18 1.28571
27 124_18 *134:CLK 0
28 124_17 124_19 4.45357
29 124_19 *135:CLK 0
30 124_15 124_20 9.58214
31 124_20 *136:CLK 0
*END
*D_NET *137 0.0189288
*CONN
*I *138:Y O *D CLKBUF1
*I *139:CLK I *L 0
*I *140:CLK I *L 0
*I *141:CLK I *L 0
*I *142:CLK I *L 0
*I *143:CLK I *L 0
*I *144:CLK I *L 0
*I *145:CLK I *L 0
*I *146:CLK I *L 0
*I *147:CLK I *L 0
*I *148:CLK I *L 0
*I *149:CLK I *L 0
*CAP
1 137_1 0.0009
2 137_2 0.0005544
3 137_3 0.0009504
4 137_4 0.0002016
5 137_5 0.0030168
6 137_6 0.000108
7 137_7 0.00198
8 137_8 0.0001008
9 137_9 0.001116
10 137_10 0.0008928
11 137_11 0.0017136
12 137_12 0.0006048
13 137_13 0.000396
14 137_14 0.0001512
15 137_15 0.0005904
16 137_16 0.0001008
17 137_17 0.0005472
18 137_18 0.0005184
19 137_19 0.002052
20 137_20 0.0001008
21 137_21 0.0023328
*RES
1 *138:Y 137_1 3.53571
2 137_1 137_2 2.82857
3 137_2 *139:CLK 0
4 137_1 137_3 3.38214
5 137_3 137_4 1.02857
6 137_4 *140:CLK 0
7 137_3 137_5 15.1571
8 137_5 137_6 0.375
9 137_6 *141:CLK 0
10 137_5 137_7 6.875
11 137_7 137_8 0.514286
12 137_8 *142:CLK 0
13 137_7 137_9 3.875
14 137_9 137_10 3.26429
15 137_10 *143:CLK 0
16 137_9 137_11 8.74286
17 137_11 137_12 3.08571
18 137_12 *144:CLK 0
19 137_11 137_13 1.375
20 137_13 137_14 0.771429
21 137_14 *145:CLK 0
22 137_13 137_15 2.13214
23 137_15 137_16 0.514286
24 137_16 *146:CLK 0
25 137_15 137_17 2.55714
26 137_17 137_18 2.29286
27 137_18 *147:CLK 0
28 137_17 137_19 10
29 137_19 137_20 0.514286
30 137_20 *148:CLK 0
31 137_19 137_21 8.26429
32 137_21 *149:CLK 0
*END
*D_NET *150 0.0166608
*CONN
*I *151:Y O *D CLKBUF1
*I *152:CLK I *L 0
*I *153:CLK I *L 0
*I *154:CLK I *L 0
*I *155:CLK I *L 0
*I *156:CLK I *L 0
*I *157:CLK I *L 0
*I *158:CLK I *L 0
*I *159:CLK I *L 0
*I *160:CLK I *L 0
*I *161:CLK I *L 0
*I *162:CLK I *L 0
*CAP
1 150_1 0.0009936
2 150_2 0.0003024
3 150_3 0.0009216
4 150_4 0.0023112
5 150_5 5.04e-05
6 150_6 0.0001512
7 150_7 0.0004896
8 150_8 0.0004536
9 150_9 0.0016848
10 150_10 0.0028368
11 150_11 0.0001512
12 150_12 0.0016704
13 150_13 0.0002016
14 150_14 0.0005616
15 150_15 0.0002016
16 150_16 0.0003456
17 150_17 0.0017928
18 150_18 0.0006696
19 150_19 0.0008712
*RES
1 *151:Y 150_1 5.01071
2 150_1 150_2 1.54286
3 150_2 150_3 3.93929
4 150_3 *152:CLK 0
5 150_3 150_4 8.27143
6 150_4 150_5 0.257143
7 150_5 150_6 0.771429
8 150_6 *153:CLK 0
9 150_5 150_7 2.43929
10 150_7 150_8 1.90357
11 150_8 *154:CLK 0
12 150_7 150_9 7.65714
13 150_9 *155:CLK 0
14 150_4 150_10 13.7107
15 150_10 150_11 0.771429
16 150_11 *156:CLK 0
17 150_10 150_12 5.88214
18 150_12 150_13 1.02857
19 150_13 *157:CLK 0
20 150_12 150_14 2.68929
21 150_14 150_15 1.02857
22 150_15 *158:CLK 0
23 150_14 150_16 1.52857
24 150_16 *159:CLK 0
25 150_2 150_17 8.03214
26 150_17 *160:CLK 0
27 150_1 150_18 2.65357
28 150_18 *161:CLK 0
29 150_1 150_19 3.27143
30 150_19 *162:CLK 0
*END
*D_NET *163 0.0133632
*CONN
*I *164:Y O *D CLKBUF1
*I *165:CLK I *L 0
*I *166:CLK I *L 0
*I *167:CLK I *L 0
*I *168:CLK I *L 0
*I *169:CLK I *L 0
*I *170:CLK I *L 0
*I *171:CLK I *L 0
*I *172:CLK I *L 0
*I *173:CLK I *L 0
*I *174:CLK I *L 0
*I *175:CLK I *L 0
*CAP
1 163_1 0.0004392
2 163_2 0.0008064
3 163_3 0.00018
4 163_4 0.0009792
5 163_5 0.0001512
6 163_6 0.001548
7 163_7 0.0002592
8 163_8 0.0013608
9 163_9 0.000252
10 163_10 0.0007992
11 163_11 0.001368
12 163_12 0.000108
13 163_13 7.2e-05
14 163_14 0.0010152
15 163_15 0.0005544
16 163_16 0.0014328
17 163_17 0.0009288
18 163_18 0.0011088
*RES
1 *164:Y 163_1 2.18214
2 163_1 163_2 4.11429
3 163_2 163_3 0.625
4 163_3 *165:CLK 0
5 163_3 163_4 4.46786
6 163_4 163_5 0.771429
7 163_5 *166:CLK 0
8 163_4 163_6 5.375
9 163_6 163_7 1.14643
10 163_7 *167:CLK 0
11 163_6 163_8 6.94286
12 163_8 163_9 1.28571
13 163_9 *168:CLK 0
14 163_8 163_10 3.02143
15 163_10 *169:CLK 0
16 163_2 163_11 5.98214
17 163_11 *170:CLK 0
18 163_11 163_12 0.375
19 163_12 163_13 0.25
20 163_13 *171:CLK 0
21 163_12 163_14 5.00357
22 163_14 163_15 2.82857
23 163_15 *172:CLK 0
24 163_14 163_16 5.55
25 163_16 *173:CLK 0
26 163_1 163_17 3.8
27 163_17 *174:CLK 0
28 163_1 163_18 4.425
29 163_18 *175:CLK 0
*END
*D_NET *176 0.0177696
*CONN
*I *177:Y O *D CLKBUF1
*I *178:CLK I *L 0
*I *179:CLK I *L 0
*I *180:CLK I *L 0
*I *181:CLK I *L 0
*I *182:CLK I *L 0
*I *183:CLK I *L 0
*I *184:CLK I *L 0
*I *185:CLK I *L 0
*I *186:CLK I *L 0
*I *187:CLK I *L 0
*I *188:CLK I *L 0
*CAP
1 176_1 0.0014904
2 176_2 0.0009216
3 176_3 0.00018
4 176_4 0.002484
5 176_5 0.0003024
6 176_6 0.0008064
7 176_7 0.000396
8 176_8 0.0003024
9 176_9 0.0007056
10 176_10 0.002268
11 176_11 0.0001008
12 176_12 3.6e-05
13 176_13 0.0005688
14 176_14 0.0013248
15 176_15 0.0004032
16 176_16 0.001692
17 176_17 0.0013104
18 176_18 0.001728
19 176_19 0.0003024
20 176_20 0.0004464
*RES
1 *177:Y 176_1 5.66786
2 176_1 176_2 4.35
3 176_2 176_3 0.625
4 176_3 *178:CLK 0
5 176_2 176_4 11.0893
6 176_4 176_5 1.54286
7 176_5 *179:CLK 0
8 176_4 176_6 3.70357
9 176_6 *180:CLK 0
10 176_1 176_7 1.375
11 176_7 176_8 1.54286
12 176_8 *181:CLK 0
13 176_7 176_9 3.18929
14 176_9 *182:CLK 0
15 176_1 176_10 10.75
16 176_10 176_11 0.514286
17 176_11 *183:CLK 0
18 176_10 176_12 0.125
19 176_12 176_13 2.13929
20 176_13 *184:CLK 0
21 176_12 176_14 6.40714
22 176_14 176_15 2.05714
23 176_15 *185:CLK 0
24 176_14 176_16 5.875
25 176_16 176_17 5.04286
26 176_17 *186:CLK 0
27 176_16 176_18 8.46429
28 176_18 176_19 1.54286
29 176_19 *187:CLK 0
30 176_18 176_20 2.04286
31 176_20 *188:CLK 0
*END
*D_NET *189 0.0156024
*CONN
*I *190:Q O *D _1009
*I *191:A I *L 0
*I *192:A I *L 0
*I *193:C I *L 0
*I *194:C I *L 0
*I *195:A I *L 0
*I *196:C I *L 0
*I *197:C I *L 0
*I *198:C I *L 0
*I *199:C I *L 0
*I *200:C I *L 0
*I *201:B I *L 0
*CAP
1 189_1 0.000936
2 189_2 0.001332
3 189_3 0.0001008
4 189_4 0.0019872
5 189_5 0.00072
6 189_6 0.0003024
7 189_7 0.000648
8 189_8 0.0004032
9 189_9 0.0016416
10 189_10 0.0016416
11 189_11 0.0001008
12 189_12 0.0008712
13 189_13 0.0002016
14 189_14 0.00036
15 189_15 0.0002016
16 189_16 0.000216
17 189_17 0.000648
18 189_18 0.001764
19 189_19 0.0004104
20 189_20 0.001116
*RES
1 *190:Q 189_1 4.07143
2 189_1 *191:A 0
3 189_1 189_2 5.85714
4 189_2 189_3 0.514286
5 189_3 *192:A 0
6 189_2 189_4 8.78929
7 189_4 189_5 2.5
8 189_5 189_6 1.54286
9 189_6 *193:C 0
10 189_5 189_7 2.25
11 189_7 189_8 2.05714
12 189_8 *194:C 0
13 189_7 189_9 7.67143
14 189_9 *195:A 0
15 189_4 189_10 7.67143
16 189_10 189_11 0.514286
17 189_11 *196:C 0
18 189_10 189_12 3.27143
19 189_12 189_13 1.02857
20 189_13 *197:C 0
21 189_12 189_14 1.25
22 189_14 189_15 1.02857
23 189_15 *198:C 0
24 189_14 189_16 0.75
25 189_16 189_17 2.74286
26 189_17 *199:C 0
27 189_16 189_18 6.94643
28 189_18 189_19 1.91786
29 189_19 *200:C 0
30 189_18 189_20 4.28571
31 189_20 *201:B 0
*END
*D_NET *202 0.030528
*CONN
*I *203:Y O *D _1082
*I *204:A I *L 0
*I *205:A I *L 0
*I *206:A I *L 0
*I *207:A I *L 0
*I *208:A I *L 0
*I *209:A I *L 0
*I *210:A I *L 0
*I *211:A I *L 0
*I *212:A I *L 0
*I *213:A I *L 0
*I *214:A I *L 0
*CAP
1 202_1 0.0045936
2 202_2 0.0003528
3 202_3 0.000828
4 202_4 0.00036
5 202_5 0.0003528
6 202_6 0.000288
7 202_7 0.0003528
8 202_8 0.000684
9 202_9 0.0011664
10 202_10 0.0008784
11 202_11 0.0136872
12 202_12 0.0016128
13 202_13 0.0001008
14 202_14 0.000216
15 202_15 0.0007848
16 202_16 0.0010368
17 202_17 0.0025704
18 202_18 0.0003096
19 202_19 0.0003528
*RES
1 *203:Y 202_1 17.1
2 202_1 202_2 1.8
3 202_2 *204:A 0
4 202_1 202_3 2.875
5 202_3 202_4 1.25
6 202_4 202_5 1.8
7 202_5 *205:A 0
8 202_4 202_6 1
9 202_6 202_7 1.8
10 202_7 *206:A 0
11 202_6 202_8 2.375
12 202_8 202_9 5.775
13 202_9 *207:A 0
14 202_9 202_10 3.95357
15 202_10 *208:A 0
16 202_8 202_11 61.4893
17 202_11 *209:A 0
18 202_3 202_12 8.22857
19 202_12 202_13 0.514286
20 202_13 *210:A 0
21 202_12 202_14 0.75
22 202_14 202_15 2.88929
23 202_15 *211:A 0
24 202_14 202_16 4.99643
25 202_16 *212:A 0
26 202_16 202_17 11.6357
27 202_17 202_18 1.40357
28 202_18 *213:A 0
29 202_17 202_19 1.8
30 202_19 *214:A 0
*END
*D_NET *215 0.0188424
*CONN
*I *216:Y O *D _1099
*I *217:C I *L 0
*I *218:C I *L 0
*I *219:C I *L 0
*I *220:C I *L 0
*I *221:A I *L 0
*I *222:C I *L 0
*I *223:C I *L 0
*I *224:C I *L 0
*I *225:A I *L 0
*I *226:B I *L 0
*I *227:A I *L 0
*CAP
1 215_1 0.0013824
2 215_2 0.0001008
3 215_3 0.00036
4 215_4 0.0001008
5 215_5 0.000144
6 215_6 0.0014472
7 215_7 0.0010584
8 215_8 0.0007992
9 215_9 0.001836
10 215_10 0.0002592
11 215_11 0.0014112
12 215_12 0.0001008
13 215_13 0.000648
14 215_14 0.0001008
15 215_15 0.0006768
16 215_16 0.0017064
17 215_17 0.0003528
18 215_18 0.0018432
19 215_19 0.0018648
20 215_20 0.0026496
*RES
1 *216:Y 215_1 6.11429
2 215_1 215_2 0.514286
3 215_2 *217:C 0
4 215_1 215_3 1.25
5 215_3 215_4 0.514286
6 215_4 *218:C 0
7 215_3 215_5 0.5
8 215_5 215_6 6.09286
9 215_6 *219:C 0
10 215_5 215_7 5.4
11 215_7 215_8 3.51429
12 215_8 *220:C 0
13 215_8 215_9 8.42857
14 215_9 215_10 1.14643
15 215_10 *221:A 0
16 215_9 215_11 7.2
17 215_11 215_12 0.514286
18 215_12 *222:C 0
19 215_11 215_13 2.25
20 215_13 215_14 0.514286
21 215_14 *223:C 0
22 215_13 215_15 2.51429
23 215_15 *224:C 0
24 215_7 215_16 6.00714
25 215_16 215_17 1.8
26 215_17 *225:A 0
27 215_16 215_18 7.87857
28 215_18 215_19 7.05
29 215_19 *226:B 0
30 215_18 215_20 13.225
31 215_20 *227:A 0
*END
*D_NET *228 0.0400248
*CONN
*P *228 O
*I *229:A I *L 0
*I *230:A I *L 0
*I *231:A I *L 0
*I *232:A I *L 0
*I *233:A I *L 0
*I *234:A I *L 0
*I *235:A I *L 0
*I *236:A I *L 0
*I *237:A I *L 0
*I *238:A I *L 0
*CAP
1 228_1 0.000216
2 228_2 0.0012456
3 228_3 0.000504
4 228_4 0.0049464
5 228_5 0.0001008
6 228_6 0.0032328
7 228_7 0.0017424
8 228_8 0.0019656
9 228_9 0.0009
10 228_10 0.002772
11 228_11 0.0014616
12 228_12 0.005796
13 228_13 0.0023688
14 228_14 0.0015768
15 228_15 0.0001008
16 228_16 0.0038088
17 228_17 0.003816
18 228_18 0.0001008
19 228_19 0.0033696
*RES
1 *228 228_1 0.75
2 228_1 228_2 5.88571
3 228_2 228_3 2.57143
4 228_3 *229:A 0
5 228_2 228_4 18.0786
6 228_4 228_5 0.514286
7 228_5 *230:A 0
8 228_4 228_6 12.6214
9 228_6 228_7 8.18571
10 228_7 *231:A 0
11 228_6 228_8 10.0286
12 228_8 228_9 3.94643
13 228_9 *232:A 0
14 228_8 228_10 9.625
15 228_10 228_11 7.04643
16 228_11 *233:A 0
17 228_10 228_12 28.0929
18 228_12 228_13 8.8
19 228_13 *234:A 0
20 228_12 228_14 7.28214
21 228_14 228_15 0.514286
22 228_15 *235:A 0
23 228_14 228_16 13.8
24 228_16 *236:A 0
25 228_1 228_17 19
26 228_17 228_18 0.514286
27 228_18 *237:A 0
28 228_17 228_19 14.0821
29 228_19 *238:A 0
*END
*D_NET *239 0.0186192
*CONN
*I *240:Y O *D CLKBUF1
*I *241:CLK I *L 0
*I *242:CLK I *L 0
*I *243:CLK I *L 0
*I *244:CLK I *L 0
*I *245:CLK I *L 0
*I *246:CLK I *L 0
*I *247:CLK I *L 0
*I *248:CLK I *L 0
*I *249:CLK I *L 0
*I *250:CLK I *L 0
*CAP
1 239_1 0.001476
2 239_2 0.000504
3 239_3 0.0021744
4 239_4 3.6e-05
5 239_5 0.0036504
6 239_6 0.0003528
7 239_7 0.0022536
8 239_8 0.0015192
9 239_9 0.0001512
10 239_10 0.00234
11 239_11 0.0003024
12 239_12 0.00054
13 239_13 0.000252
14 239_14 0.0001944
15 239_15 0.000252
16 239_16 0.00036
17 239_17 0.0005544
18 239_18 0.0017064
*RES
1 *240:Y 239_1 5.53571
2 239_1 239_2 2.57143
3 239_2 *241:CLK 0
4 239_1 239_3 8.04286
5 239_3 239_4 0.125
6 239_4 *242:CLK 0
7 239_4 239_5 17.6857
8 239_5 239_6 1.8
9 239_6 *243:CLK 0
10 239_5 239_7 10.2071
11 239_7 *244:CLK 0
12 239_7 239_8 5.52143
13 239_8 239_9 0.771429
14 239_9 *245:CLK 0
15 239_8 239_10 10.1786
16 239_10 239_11 1.54286
17 239_11 *246:CLK 0
18 239_10 239_12 1.875
19 239_12 239_13 1.28571
20 239_13 *247:CLK 0
21 239_12 239_14 0.757143
22 239_14 239_15 1.28571
23 239_15 *248:CLK 0
24 239_14 239_16 1.66071
25 239_16 239_17 2.41786
26 239_17 *249:CLK 0
27 239_16 239_18 8.06071
28 239_18 *250:CLK 0
*END
*D_NET *251 0.0175248
*CONN
*I *252:Y O *D _897
*I *253:A I *L 0
*I *254:A I *L 0
*I *255:B I *L 0
*I *256:A I *L 0
*I *257:A I *L 0
*I *258:A I *L 0
*I *259:C I *L 0
*I *260:A I *L 0
*I *261:C I *L 0
*I *262:C I *L 0
*CAP
1 251_1 0.0001008
2 251_2 0.001152
3 251_3 0.0001368
4 251_4 0.0012096
5 251_5 0.0017208
6 251_6 0.0001512
7 251_7 0.0024768
8 251_8 0.0001512
9 251_9 0.0018144
10 251_10 0.000252
11 251_11 0.0001008
12 251_12 0.001728
13 251_13 0.000216
14 251_14 0.0001512
15 251_15 0.0024768
16 251_16 0.002088
17 251_17 0.000252
18 251_18 0.000252
19 251_19 0.0010944
*RES
1 *252:Y 251_1 0.514286
2 251_1 251_2 4
3 251_2 251_3 0.639286
4 251_3 *253:A 0
5 251_2 251_4 5.35
6 251_4 *254:A 0
7 251_1 251_5 7.45357
8 251_5 251_6 0.771429
9 251_6 *255:B 0
10 251_5 251_7 11.6393
11 251_7 251_8 0.771429
12 251_8 *256:A 0
13 251_7 251_9 8.84643
14 251_9 251_10 0.875
15 251_10 251_11 0.514286
16 251_11 *257:A 0
17 251_10 251_12 6
18 251_12 251_13 0.75
19 251_13 251_14 0.771429
20 251_14 *258:A 0
21 251_13 251_15 12.05
22 251_15 *259:C 0
23 251_12 251_16 9.79643
24 251_16 *260:A 0
25 251_9 251_17 0.875
26 251_17 251_18 0.875
27 251_18 *261:C 0
28 251_17 251_19 5.11429
29 251_19 *262:C 0
*END
*D_NET *263 0.0140328
*CONN
*I *264:Q O *D _1530
*I *265:A I *L 0
*I *266:A I *L 0
*I *267:A I *L 0
*I *268:A I *L 0
*I *269:A I *L 0
*I *270:A I *L 0
*I *271:B I *L 0
*I *272:A I *L 0
*I *273:A I *L 0
*I *274:A I *L 0
*CAP
1 263_1 0.0001008
2 263_2 0.0014976
3 263_3 0.0005544
4 263_4 0.0002952
5 263_5 0.0008352
6 263_6 5.04e-05
7 263_7 0.0002448
8 263_8 0.000792
9 263_9 0.0001368
10 263_10 0.0018936
11 263_11 0.000216
12 263_12 0.000648
13 263_13 0.0001728
14 263_14 0.0004536
15 263_15 0.0041688
16 263_16 0.000252
17 263_17 0.0010584
18 263_18 0.0001512
19 263_19 0.0005112
*RES
1 *264:Q 263_1 0.514286
2 263_1 263_2 7.17143
3 263_2 263_3 2.82857
4 263_3 263_4 1.27143
5 263_4 *265:A 0
6 263_3 263_5 3.14643
7 263_5 *266:A 0
8 263_2 263_6 0.257143
9 263_6 263_7 1.01429
10 263_7 *267:A 0
11 263_6 263_8 2.75
12 263_8 263_9 0.639286
13 263_9 *268:A 0
14 263_8 263_10 8.13571
15 263_10 *269:A 0
16 263_1 263_11 0.75
17 263_11 263_12 2.25
18 263_12 263_13 0.764286
19 263_13 *270:A 0
20 263_12 263_14 2.31429
21 263_14 *271:B 0
22 263_11 263_15 19.5679
23 263_15 263_16 1.28571
24 263_16 *272:A 0
25 263_15 263_17 3.92143
26 263_17 263_18 0.771429
27 263_18 *273:A 0
28 263_17 263_19 2.43214
29 263_19 *274:A 0
*END
*D_NET *275 0.0125856
*CONN
*I *276:Q O *D _1008
*I *277:B I *L 0
*I *278:A I *L 0
*I *279:A I *L 0
*I *280:A I *L 0
*I *281:A I *L 0
*I *282:A I *L 0
*I *283:A I *L 0
*I *284:A I *L 0
*I *285:A I *L 0
*CAP
1 275_1 0.0012024
2 275_2 0.0004032
3 275_3 3.6e-05
4 275_4 0.001188
5 275_5 0.0007992
6 275_6 0.0006552
7 275_7 0.001584
8 275_8 0.0001008
9 275_9 0.0013176
10 275_10 0.0011448
11 275_11 0.000144
12 275_12 3.6e-05
13 275_13 0.00036
14 275_14 0.0010224
15 275_15 0.0004248
16 275_16 0.0021672
*RES
1 *276:Q 275_1 5.9
2 275_1 275_2 2.05714
3 275_2 *277:B 0
4 275_1 275_3 0.125
5 275_3 275_4 4.125
6 275_4 275_5 3.43214
7 275_5 275_6 3.34286
8 275_6 *278:A 0
9 275_5 275_7 5.5
10 275_7 275_8 0.514286
11 275_8 *279:A 0
12 275_7 275_9 5.725
13 275_9 *280:A 0
14 275_4 275_10 5.78214
15 275_10 275_11 0.5
16 275_11 275_12 0.125
17 275_12 *281:A 0
18 275_12 275_13 1.25
19 275_13 *282:A 0
20 275_13 275_14 4.04286
21 275_14 *283:A 0
22 275_10 275_15 1.63929
23 275_15 *284:A 0
24 275_3 275_16 9.08571
25 275_16 *285:A 0
*END
*D_NET *286 0.010152
*CONN
*I *287:Q O *D _1531
*I *288:A I *L 0
*I *289:A I *L 0
*I *290:B I *L 0
*I *291:A I *L 0
*I *292:A I *L 0
*I *293:A I *L 0
*I *294:B I *L 0
*I *295:A I *L 0
*I *296:A I *L 0
*CAP
1 286_1 0.0011664
2 286_2 0.0008568
3 286_3 0.0002016
4 286_4 0.0001008
5 286_5 0.001008
6 286_6 0.0011088
7 286_7 0.0004104
8 286_8 0.0006048
9 286_9 0.0009216
10 286_10 0.00108
11 286_11 0.0003456
12 286_12 0.0006408
13 286_13 0.0014904
14 286_14 0.000216
*RES
1 *287:Q 286_1 4.95357
2 286_1 286_2 3.55
3 286_2 *288:A 0
4 286_1 286_3 1.02857
5 286_3 286_4 0.514286
6 286_4 *289:A 0
7 286_3 286_5 5.14286
8 286_5 286_6 5.65714
9 286_6 *290:B 0
10 286_6 286_7 1.91786
11 286_7 286_8 2.675
12 286_8 *291:A 0
13 286_7 286_9 3.52857
14 286_9 *292:A 0
15 286_5 286_10 3.75
16 286_10 286_11 1.52857
17 286_11 *293:A 0
18 286_10 286_12 2.8
19 286_12 *294:B 0
20 286_12 286_13 7.31071
21 286_13 *295:A 0
22 286_13 286_14 0.75
23 286_14 *296:A 0
*END
*D_NET *297 0.0087264
*CONN
*I *298:Q O *D _1493
*I *299:A I *L 0
*I *300:B I *L 0
*I *301:A I *L 0
*I *302:B I *L 0
*I *303:A I *L 0
*I *304:A I *L 0
*I *305:A I *L 0
*I *306:A I *L 0
*I *307:B I *L 0
*CAP
1 297_1 0.0012528
2 297_2 0.00054
3 297_3 0.0008928
4 297_4 0.00036
5 297_5 0.0006552
6 297_6 3.6e-05
7 297_7 0.0009864
8 297_8 0.0004392
9 297_9 0.000108
10 297_10 0.0002808
11 297_11 0.0003168
12 297_12 0.0006552
13 297_13 0.0008136
14 297_14 0.0013896
*RES
1 *298:Q 297_1 5.33571
2 297_1 297_2 2.69643
3 297_2 *299:A 0
4 297_2 297_3 4.08571
5 297_3 297_4 1.25
6 297_4 *300:B 0
7 297_4 297_5 3.34286
8 297_5 *301:A 0
9 297_3 297_6 0.125
10 297_6 *302:B 0
11 297_1 297_7 3.50714
12 297_7 297_8 2.18214
13 297_8 297_9 0.375
14 297_9 *303:A 0
15 297_9 297_10 1.13929
16 297_10 297_11 1.26429
17 297_11 *304:A 0
18 297_10 297_12 3.34286
19 297_12 *305:A 0
20 297_8 297_13 3.975
21 297_13 *306:A 0
22 297_7 297_14 6.79643
23 297_14 *307:B 0
*END
*D_NET *308 0.0133776
*CONN
*I *309:Y O *D _1654
*I *310:A I *L 0
*I *311:A I *L 0
*I *312:A I *L 0
*I *313:A I *L 0
*I *314:A I *L 0
*I *315:A I *L 0
*I *316:A I *L 0
*I *317:A I *L 0
*I *318:A I *L 0
*CAP
1 308_1 0.000252
2 308_2 0.000612
3 308_3 0.0007848
4 308_4 0.000468
5 308_5 0.0052992
6 308_6 0.0005544
7 308_7 0.0009
8 308_8 0.0003816
9 308_9 0.000108
10 308_10 0.000504
11 308_11 0.0004608
12 308_12 0.0001728
13 308_13 0.0006552
14 308_14 0.0016704
15 308_15 0.0005544
*RES
1 *309:Y 308_1 0.875
2 308_1 308_2 2.125
3 308_2 *310:A 0
4 308_1 308_3 3.71071
5 308_3 308_4 1.625
6 308_4 *311:A 0
7 308_3 308_5 21.1107
8 308_5 308_6 2.82857
9 308_6 *312:A 0
10 308_5 308_7 3.125
11 308_7 308_8 1.65357
12 308_8 *313:A 0
13 308_8 308_9 0.375
14 308_9 308_10 1.75
15 308_10 *314:A 0
16 308_10 308_11 1.76429
17 308_11 308_12 0.764286
18 308_12 *315:A 0
19 308_11 308_13 3.34286
20 308_13 *316:A 0
21 308_9 308_14 8.34643
22 308_14 *317:A 0
23 308_7 308_15 2.82857
24 308_15 *318:A 0
*END
*D_NET *319 0.0245304
*CONN
*I *320:Y O *D _1660
*I *321:B I *L 0
*I *322:A I *L 0
*I *323:A I *L 0
*I *324:B I *L 0
*I *325:B I *L 0
*I *326:B I *L 0
*I *327:B I *L 0
*I *328:B I *L 0
*I *329:C I *L 0
*CAP
1 319_1 0.0049392
2 319_2 0.0008352
3 319_3 0.005904
4 319_4 0.000972
5 319_5 0.0004464
6 319_6 0.001404
7 319_7 0.0001512
8 319_8 0.0025488
9 319_9 0.0003024
10 319_10 0.0009
11 319_11 0.000216
12 319_12 0.0004032
13 319_13 0.0015408
14 319_14 0.0005256
15 319_15 0.0034416
*RES
1 *320:Y 319_1 19.45
2 319_1 319_2 3.96786
3 319_2 *321:B 0
4 319_1 319_3 23.375
5 319_3 *322:A 0
6 319_3 319_4 4.11429
7 319_4 319_5 1.71429
8 319_5 *323:A 0
9 319_4 319_6 6.10714
10 319_6 319_7 0.771429
11 319_7 *324:B 0
12 319_6 319_8 11.0679
13 319_8 319_9 1.54286
14 319_9 *325:B 0
15 319_8 319_10 3.125
16 319_10 319_11 0.75
17 319_11 319_12 2.05714
18 319_12 *326:B 0
19 319_11 319_13 5.925
20 319_13 *327:B 0
21 319_13 319_14 2.15357
22 319_14 *328:B 0
23 319_10 319_15 16.3036
24 319_15 *329:C 0
*END
*D_NET *330 0.0157248
*CONN
*I *331:Y O *D _892
*I *332:A I *L 0
*I *333:B I *L 0
*I *334:B I *L 0
*I *335:B I *L 0
*I *336:B I *L 0
*I *337:B I *L 0
*I *338:A I *L 0
*I *339:A I *L 0
*I *340:A I *L 0
*CAP
1 330_1 0.001188
2 330_2 0.000252
3 330_3 0.0012384
4 330_4 0.000216
5 330_5 0.000252
6 330_6 0.002628
7 330_7 0.000252
8 330_8 0.0031176
9 330_9 0.0012312
10 330_10 0.0021168
11 330_11 0.0008568
12 330_12 0.000252
13 330_13 0.000684
14 330_14 0.000252
15 330_15 0.00018
16 330_16 0.0003024
17 330_17 0.0007056
*RES
1 *331:Y 330_1 4.53571
2 330_1 330_2 1.28571
3 330_2 *332:A 0
4 330_1 330_3 5.20357
5 330_3 330_4 0.75
6 330_4 330_5 1.28571
7 330_5 *333:B 0
8 330_4 330_6 9.125
9 330_6 330_7 1.28571
10 330_7 *334:B 0
11 330_6 330_8 12.7964
12 330_8 330_9 5.01429
13 330_9 *335:B 0
14 330_8 330_10 8.33571
15 330_10 *336:B 0
16 330_3 330_11 4.37143
17 330_11 330_12 1.28571
18 330_12 *337:B 0
19 330_11 330_13 2.375
20 330_13 330_14 1.28571
21 330_14 *338:A 0
22 330_13 330_15 0.625
23 330_15 330_16 1.54286
24 330_16 *339:A 0
25 330_15 330_17 3.18929
26 330_17 *340:A 0
*END
*D_NET *341 0.0156096
*CONN
*I *342:Y O *D BUFX2
*I *343:C I *L 0
*I *344:A I *L 0
*I *345:C I *L 0
*I *346:C I *L 0
*I *347:C I *L 0
*I *348:C I *L 0
*I *349:C I *L 0
*I *350:A I *L 0
*CAP
1 341_1 0.0002376
2 341_2 0.000252
3 341_3 0.0005976
4 341_4 0.0007128
5 341_5 0.0017064
6 341_6 0.0001008
7 341_7 0.0013104
8 341_8 0.0012384
9 341_9 0.00126
10 341_10 0.0009648
11 341_11 0.0016848
12 341_12 0.0012384
13 341_13 0.001692
14 341_14 0.000252
15 341_15 0.0023616
*RES
1 *342:Y 341_1 1.15357
2 341_1 341_2 0.875
3 341_2 341_3 2.40357
4 341_3 *343:C 0
5 341_2 341_4 3.21429
6 341_4 *344:A 0
7 341_1 341_5 7.48571
8 341_5 341_6 0.514286
9 341_6 *345:C 0
10 341_5 341_7 6.275
11 341_7 341_8 6.025
12 341_8 *346:C 0
13 341_7 341_9 4.375
14 341_9 341_10 4.33571
15 341_10 *347:C 0
16 341_9 341_11 7.24643
17 341_11 341_12 6.025
18 341_12 *348:C 0
19 341_11 341_13 5.875
20 341_13 341_14 1.28571
21 341_14 *349:C 0
22 341_13 341_15 10.9929
23 341_15 *350:A 0
*END
*D_NET *351 0.0161352
*CONN
*I *352:Y O *D BUFX2
*I *353:B I *L 0
*I *354:C I *L 0
*I *355:C I *L 0
*I *356:C I *L 0
*I *357:C I *L 0
*I *358:C I *L 0
*I *359:C I *L 0
*I *360:C I *L 0
*CAP
1 351_1 0.0019368
2 351_2 0.0011808
3 351_3 0.000504
4 351_4 0.0029808
5 351_5 0.00072
6 351_6 0.0013464
7 351_7 0.0026784
8 351_8 0.0016056
9 351_9 0.0006408
10 351_10 0.0008928
11 351_11 0.0016488
*RES
1 *352:Y 351_1 8.53214
2 351_1 351_2 5.49643
3 351_2 *353:B 0
4 351_1 351_3 2.57143
5 351_3 *354:C 0
6 351_1 351_4 12.1571
7 351_4 *355:C 0
8 351_4 351_5 3.32143
9 351_5 351_6 5.16786
10 351_6 *356:C 0
11 351_5 351_7 12.2571
12 351_7 *357:C 0
13 351_7 351_8 7.54643
14 351_8 351_9 2.8
15 351_9 *358:C 0
16 351_8 351_10 3.675
17 351_10 *359:C 0
18 351_10 351_11 7.12143
19 351_11 *360:C 0
*END
*D_NET *361 0.0109872
*CONN
*I *362:Y O *D BUFX2
*I *363:C I *L 0
*I *364:C I *L 0
*I *365:A I *L 0
*I *366:A I *L 0
*I *367:C I *L 0
*I *368:C I *L 0
*I *369:A I *L 0
*I *370:A I *L 0
*CAP
1 361_1 0.00054
2 361_2 0.000216
3 361_3 0.0021096
4 361_4 0.000216
5 361_5 0.0011448
6 361_6 0.0006984
7 361_7 3.6e-05
8 361_8 0.0008712
9 361_9 0.0017208
10 361_10 0.001764
11 361_11 0.0002016
12 361_12 0.0007632
13 361_13 0.0007056
*RES
1 *362:Y 361_1 1.875
2 361_1 361_2 0.75
3 361_2 *363:C 0
4 361_2 361_3 9.70714
5 361_3 361_4 0.75
6 361_4 *364:C 0
7 361_3 361_5 5.78214
8 361_5 361_6 2.91786
9 361_6 361_7 0.125
10 361_7 *365:A 0
11 361_7 361_8 3.27143
12 361_8 *366:A 0
13 361_5 361_9 6.55
14 361_9 *367:C 0
15 361_9 361_10 6.53571
16 361_10 361_11 1.02857
17 361_11 *368:C 0
18 361_10 361_12 3.71786
19 361_12 *369:A 0
20 361_1 361_13 3.6
21 361_13 *370:A 0
*END
*D_NET *371 0.0145584
*CONN
*I *372:Y O *D BUFX2
*I *373:C I *L 0
*I *374:C I *L 0
*I *375:A I *L 0
*I *376:C I *L 0
*I *377:C I *L 0
*I *378:C I *L 0
*I *379:C I *L 0
*I *380:C I *L 0
*CAP
1 371_1 0.0013104
2 371_2 0.0001008
3 371_3 0.0007128
4 371_4 0.0002592
5 371_5 0.001944
6 371_6 0.000396
7 371_7 0.0007848
8 371_8 0.0008424
9 371_9 0.0010944
10 371_10 0.0018072
11 371_11 0.0004464
12 371_12 0.002124
13 371_13 0.0002016
14 371_14 0.0025344
*RES
1 *372:Y 371_1 5.7
2 371_1 371_2 0.514286
3 371_2 *373:C 0
4 371_1 371_3 2.63929
5 371_3 371_4 1.14643
6 371_4 *374:C 0
7 371_3 371_5 9.625
8 371_5 371_6 1.78571
9 371_6 *375:A 0
10 371_5 371_7 3.71071
11 371_7 371_8 3.58214
12 371_8 *376:C 0
13 371_8 371_9 4.29286
14 371_9 *377:C 0
15 371_7 371_10 6.93214
16 371_10 371_11 1.71429
17 371_11 *378:C 0
18 371_10 371_12 10.6607
19 371_12 371_13 1.02857
20 371_13 *379:C 0
21 371_12 371_14 10.525
22 371_14 *380:C 0
*END
*D_NET *381 0.0160992
*CONN
*I *382:Y O *D _1126
*I *383:A I *L 0
*I *384:A I *L 0
*I *385:C I *L 0
*I *386:B I *L 0
*I *387:B I *L 0
*I *388:C I *L 0
*I *389:B I *L 0
*I *390:B I *L 0
*CAP
1 381_1 3.6e-05
2 381_2 0.0006984
3 381_3 0.0001008
4 381_4 0.0004608
5 381_5 0.0013176
6 381_6 0.000252
7 381_7 0.0024696
8 381_8 0.0001512
9 381_9 0.001332
10 381_10 0.0002016
11 381_11 0.0010224
12 381_12 0.0007488
13 381_13 0.0043704
14 381_14 0.000252
15 381_15 0.0026856
*RES
1 *382:Y 381_1 0.125
2 381_1 381_2 3.32857
3 381_2 381_3 0.514286
4 381_3 *383:A 0
5 381_2 381_4 1.76429
6 381_4 *384:A 0
7 381_1 381_5 5.31429
8 381_5 381_6 1.28571
9 381_6 *385:C 0
10 381_5 381_7 9.725
11 381_7 381_8 0.771429
12 381_8 *386:B 0
13 381_7 381_9 5.85714
14 381_9 381_10 1.02857
15 381_10 *387:B 0
16 381_9 381_11 4.04286
17 381_11 381_12 3.58571
18 381_12 *388:C 0
19 381_11 381_13 16.4893
20 381_13 381_14 1.28571
21 381_14 *389:B 0
22 381_13 381_15 10.6393
23 381_15 *390:B 0
*END
*D_NET *391 0.0224784
*CONN
*I *392:Y O *D _1130
*I *393:B I *L 0
*I *394:A I *L 0
*I *395:A I *L 0
*I *396:A I *L 0
*I *397:A I *L 0
*I *398:A I *L 0
*I *399:A I *L 0
*I *400:A I *L 0
*CAP
1 391_1 0.0030672
2 391_2 0.0019656
3 391_3 0.0007632
4 391_4 0.0001512
5 391_5 0.0012672
6 391_6 0.0033048
7 391_7 0.0001008
8 391_8 0.000936
9 391_9 0.0020088
10 391_10 0.0039096
11 391_11 0.000252
12 391_12 0.0001008
13 391_13 0.0018144
14 391_14 0.0028368
*RES
1 *392:Y 391_1 14.1821
2 391_1 391_2 7.975
3 391_2 *393:B 0
4 391_2 391_3 3.30714
5 391_3 391_4 0.771429
6 391_4 *394:A 0
7 391_3 391_5 5.87857
8 391_5 *395:A 0
9 391_1 391_6 13.2821
10 391_6 391_7 0.514286
11 391_7 *396:A 0
12 391_6 391_8 3.66071
13 391_8 391_9 9.60357
14 391_9 *397:A 0
15 391_8 391_10 15.1357
16 391_10 391_11 1.28571
17 391_11 391_12 0.514286
18 391_12 *398:A 0
19 391_11 391_13 7.03929
20 391_13 *399:A 0
21 391_10 391_14 14.1214
22 391_14 *400:A 0
*END
*D_NET *401 0.0103824
*CONN
*I *402:Y O *D _1643
*I *403:A I *L 0
*I *404:A I *L 0
*I *405:B I *L 0
*I *406:A I *L 0
*I *407:C I *L 0
*I *408:B I *L 0
*I *409:C I *L 0
*I *410:A I *L 0
*CAP
1 401_1 0.000108
2 401_2 0.0001584
3 401_3 0.0006048
4 401_4 0.0019224
5 401_5 0.0007992
6 401_6 3.6e-05
7 401_7 0.000936
8 401_8 0.000504
9 401_9 0.001404
10 401_10 0.0003024
11 401_11 0.0006264
12 401_12 0.0020952
13 401_13 0.0008856
*RES
1 *402:Y 401_1 0.375
2 401_1 401_2 0.632143
3 401_2 401_3 3.08571
4 401_3 *403:A 0
5 401_2 401_4 7.16786
6 401_4 *404:A 0
7 401_4 401_5 3.02143
8 401_5 401_6 0.125
9 401_6 *405:B 0
10 401_6 401_7 3.66071
11 401_7 401_8 2.57143
12 401_8 *406:A 0
13 401_7 401_9 6.10714
14 401_9 401_10 1.54286
15 401_10 *407:C 0
16 401_9 401_11 2.66786
17 401_11 *408:B 0
18 401_6 401_12 9.73929
19 401_12 *409:C 0
20 401_1 401_13 4.225
21 401_13 *410:A 0
*END
*D_NET *411 0.0203832
*CONN
*I *412:Y O *D _1666
*I *413:C I *L 0
*I *414:A I *L 0
*I *415:A I *L 0
*I *416:C I *L 0
*I *417:A I *L 0
*I *418:B I *L 0
*I *419:A I *L 0
*I *420:C I *L 0
*CAP
1 411_1 0.0001872
2 411_2 0.000612
3 411_3 0.001224
4 411_4 0.0003024
5 411_5 0.00036
6 411_6 0.001728
7 411_7 0.0004176
8 411_8 0.0025272
9 411_9 0.0015336
10 411_10 0.000432
11 411_11 0.0011304
12 411_12 0.0020232
13 411_13 0.0067896
14 411_14 0.000252
15 411_15 0.000864
*RES
1 *412:Y 411_1 0.896429
2 411_1 411_2 2.125
3 411_2 411_3 4.25
4 411_3 411_4 1.54286
5 411_4 411_5 1.41429
6 411_5 *413:C 0
7 411_4 411_6 7.97143
8 411_6 411_7 1.77857
9 411_7 *414:A 0
10 411_6 411_8 9.84286
11 411_8 *415:A 0
12 411_3 411_9 6.88571
13 411_9 411_10 1.91071
14 411_10 *416:C 0
15 411_9 411_11 5.23929
16 411_11 *417:A 0
17 411_2 411_12 10.1464
18 411_12 *418:B 0
19 411_1 411_13 27.1893
20 411_13 411_14 1.28571
21 411_14 *419:A 0
22 411_13 411_15 3.41071
23 411_15 *420:C 0
*END
*D_NET *421 0.0112176
*CONN
*I *422:Y O *D _1904
*I *423:B I *L 0
*I *424:B I *L 0
*I *425:B I *L 0
*I *426:B I *L 0
*I *427:B I *L 0
*I *428:B I *L 0
*I *429:B I *L 0
*I *430:B I *L 0
*CAP
1 421_1 0.001944
2 421_2 0.00072
3 421_3 0.0004896
4 421_4 0.000756
5 421_5 0.001476
6 421_6 0.0001512
7 421_7 0.000864
8 421_8 3.6e-05
9 421_9 0.00018
10 421_10 5.04e-05
11 421_11 0.0007056
12 421_12 0.0012024
13 421_13 0.001764
14 421_14 0.0001512
15 421_15 0.0007272
*RES
1 *422:Y 421_1 7.57143
2 421_1 421_2 2.91071
3 421_2 *423:B 0
4 421_1 421_3 2.43929
5 421_3 421_4 3.44643
6 421_4 *424:B 0
7 421_3 421_5 5.125
8 421_5 421_6 0.771429
9 421_6 *425:B 0
10 421_5 421_7 3.82143
11 421_7 421_8 0.125
12 421_8 *426:B 0
13 421_8 421_9 0.625
14 421_9 421_10 0.257143
15 421_10 421_11 3.6
16 421_11 *427:B 0
17 421_10 421_12 5.57143
18 421_12 *428:B 0
19 421_9 421_13 6.94643
20 421_13 421_14 0.771429
21 421_14 *429:B 0
22 421_13 421_15 2.77143
23 421_15 *430:B 0
*END
*D_NET *431 0.01206
*CONN
*I *432:Y O *D _1907
*I *433:B I *L 0
*I *434:B I *L 0
*I *435:B I *L 0
*I *436:B I *L 0
*I *437:B I *L 0
*I *438:B I *L 0
*I *439:B I *L 0
*I *440:B I *L 0
*CAP
1 431_1 0.002952
2 431_2 0.0003456
3 431_3 0.001764
4 431_4 0.0004968
5 431_5 0.00126
6 431_6 0.0001008
7 431_7 0.0011664
8 431_8 0.0001008
9 431_9 0.000576
10 431_10 0.000612
11 431_11 3.6e-05
12 431_12 0.0001944
13 431_13 0.0009432
14 431_14 0.001512
*RES
1 *432:Y 431_1 11.0714
2 431_1 431_2 1.52857
3 431_2 *433:B 0
4 431_1 431_3 6.53571
5 431_3 431_4 2.3
6 431_4 *434:B 0
7 431_3 431_5 6.42857
8 431_5 431_6 0.514286
9 431_6 *435:B 0
10 431_5 431_7 5.36429
11 431_7 431_8 0.514286
12 431_8 *436:B 0
13 431_7 431_9 2.41071
14 431_9 *437:B 0
15 431_9 431_10 2.125
16 431_10 431_11 0.125
17 431_11 *438:B 0
18 431_11 431_12 0.757143
19 431_12 431_13 4.34286
20 431_13 *439:B 0
21 431_12 431_14 6.89286
22 431_14 *440:B 0
*END
*D_NET *441 0.0088704
*CONN
*I *442:Y O *D _1927
*I *443:C I *L 0
*I *444:C I *L 0
*I *445:C I *L 0
*I *446:C I *L 0
*I *447:C I *L 0
*I *448:C I *L 0
*I *449:C I *L 0
*I *450:C I *L 0
*CAP
1 441_1 0.0038232
2 441_2 0.0001008
3 441_3 0.00036
4 441_4 0.0001008
5 441_5 0.000612
6 441_6 0.0001008
7 441_7 0.000324
8 441_8 0.000108
9 441_9 0.0001008
10 441_10 0.000648
11 441_11 0.0001008
12 441_12 0.00036
13 441_13 0.0001008
14 441_14 0.0013752
15 441_15 0.0006552
*RES
1 *442:Y 441_1 17.6286
2 441_1 441_2 0.514286
3 441_2 *443:C 0
4 441_1 441_3 1.25
5 441_3 441_4 0.514286
6 441_4 *444:C 0
7 441_3 441_5 2.125
8 441_5 441_6 0.514286
9 441_6 *445:C 0
10 441_5 441_7 1.125
11 441_7 441_8 0.375
12 441_8 441_9 0.514286
13 441_9 *446:C 0
14 441_8 441_10 2.25
15 441_10 441_11 0.514286
16 441_11 *447:C 0
17 441_10 441_12 1.25
18 441_12 441_13 0.514286
19 441_13 *448:C 0
20 441_12 441_14 5.84286
21 441_14 *449:C 0
22 441_7 441_15 3.34286
23 441_15 *450:C 0
*END
*D_NET *451 0.0329544
*CONN
*P *451 O
*I *452:A I *L 0
*I *453:A I *L 0
*I *454:A I *L 0
*I *455:A I *L 0
*I *456:A I *L 0
*I *457:A I *L 0
*I *458:A I *L 0
*CAP
1 451_1 0.0026784
2 451_2 0.005544
3 451_3 0.000108
4 451_4 0.0059472
5 451_5 0.0001008
6 451_6 0.0009936
7 451_7 0.0012816
8 451_8 0.0042552
9 451_9 0.0001008
10 451_10 0.0048096
11 451_11 0.0001512
12 451_12 0.006984
*RES
1 *451 451_1 11.025
2 451_1 *452:A 0
3 451_1 451_2 19.6607
4 451_2 451_3 0.375
5 451_3 451_4 27.4679
6 451_4 451_5 0.514286
7 451_5 *453:A 0
8 451_4 451_6 3.77857
9 451_6 451_7 4.77857
10 451_7 *454:A 0
11 451_6 451_8 19.7857
12 451_8 451_9 0.514286
13 451_9 *455:A 0
14 451_8 451_10 17.4393
15 451_10 *456:A 0
16 451_3 451_11 0.771429
17 451_11 *457:A 0
18 451_2 451_12 33.0393
19 451_12 *458:A 0
*END
*D_NET *459 0.0095328
*CONN
*I *460:Y O *D BUFX2
*I *461:A I *L 0
*I *462:C I *L 0
*I *463:A I *L 0
*I *464:C I *L 0
*I *465:C I *L 0
*I *466:C I *L 0
*I *467:C I *L 0
*CAP
1 459_1 0.0017064
2 459_2 0.0016848
3 459_3 0.0009576
4 459_4 0.0009216
5 459_5 0.0006624
6 459_6 0.0004464
7 459_7 0.001296
8 459_8 0.0002016
9 459_9 0.000792
10 459_10 0.0003096
11 459_11 0.0005544
*RES
1 *460:Y 459_1 7.23929
2 459_1 459_2 6.83571
3 459_2 459_3 4.88571
4 459_3 *461:A 0
5 459_3 459_4 4.35
6 459_4 *462:C 0
7 459_2 459_5 3.20357
8 459_5 *463:A 0
9 459_1 459_6 1.71429
10 459_6 *464:C 0
11 459_1 459_7 5.32143
12 459_7 459_8 1.02857
13 459_8 *465:C 0
14 459_7 459_9 2.75
15 459_9 459_10 1.40357
16 459_10 *466:C 0
17 459_9 459_11 2.82857
18 459_11 *467:C 0
*END
*D_NET *468 0.015876
*CONN
*I *469:Y O *D BUFX2
*I *470:A I *L 0
*I *471:C I *L 0
*I *472:C I *L 0
*I *473:C I *L 0
*I *474:C I *L 0
*I *475:C I *L 0
*I *476:C I *L 0
*CAP
1 468_1 0.0008712
2 468_2 0.0002376
3 468_3 0.000288
4 468_4 0.0011736
5 468_5 0.00054
6 468_6 0.0004032
7 468_7 0.000756
8 468_8 0.0018288
9 468_9 0.000504
10 468_10 0.0001008
11 468_11 0.0059472
12 468_12 0.0017568
13 468_13 0.0014688
*RES
1 *469:Y 468_1 4.09286
2 468_1 468_2 1.15357
3 468_2 468_3 1
4 468_3 *470:A 0
5 468_2 468_4 5.225
6 468_4 468_5 1.875
7 468_5 468_6 1.64643
8 468_6 *471:C 0
9 468_5 468_7 3.85714
10 468_7 *472:C 0
11 468_4 468_8 8.97857
12 468_8 468_9 2.57143
13 468_9 468_10 0.514286
14 468_10 *473:C 0
15 468_9 468_11 25.9893
16 468_11 *474:C 0
17 468_8 468_12 6.675
18 468_12 *475:C 0
19 468_1 468_13 6.08571
20 468_13 *476:C 0
*END
*D_NET *477 0.0140184
*CONN
*I *478:Y O *D BUFX2
*I *479:C I *L 0
*I *480:C I *L 0
*I *481:C I *L 0
*I *482:C I *L 0
*I *483:C I *L 0
*I *484:C I *L 0
*I *485:C I *L 0
*CAP
1 477_1 0.0006408
2 477_2 0.000972
3 477_3 0.0001512
4 477_4 0.0023112
5 477_5 0.0012312
6 477_6 0.0028872
7 477_7 0.0018288
8 477_8 0.0017784
9 477_9 0.0007344
10 477_10 0.000504
11 477_11 0.0002016
12 477_12 0.0007776
*RES
1 *478:Y 477_1 3.21071
2 477_1 477_2 3.375
3 477_2 477_3 0.771429
4 477_3 *479:C 0
5 477_2 477_4 9.91429
6 477_4 477_5 4.93214
7 477_5 *480:C 0
8 477_4 477_6 12.7357
9 477_6 *481:C 0
10 477_1 477_7 7.74643
11 477_7 *482:C 0
12 477_7 477_8 8.72143
13 477_8 477_9 3.45357
14 477_9 *483:C 0
15 477_8 477_10 1.75
16 477_10 477_11 1.02857
17 477_11 *484:C 0
18 477_10 477_12 3.02857
19 477_12 *485:C 0
*END
*D_NET *486 0.0097056
*CONN
*I *487:Y O *D BUFX2
*I *488:B I *L 0
*I *489:B I *L 0
*I *490:B I *L 0
*I *491:B I *L 0
*I *492:B I *L 0
*I *493:B I *L 0
*I *494:B I *L 0
*CAP
1 486_1 0.0006408
2 486_2 0.0001008
3 486_3 0.0035856
4 486_4 0.000144
5 486_5 0.0002016
6 486_6 0.000144
7 486_7 0.000252
8 486_8 0.0002016
9 486_9 0.0016848
10 486_10 0.00054
11 486_11 0.0009072
12 486_12 0.0013032
*RES
1 *487:Y 486_1 2.8
2 486_1 486_2 0.514286
3 486_2 *488:B 0
4 486_1 486_3 13.6
5 486_3 486_4 0.5
6 486_4 486_5 1.02857
7 486_5 *489:B 0
8 486_4 486_6 0.5
9 486_6 486_7 0.875
10 486_7 486_8 1.02857
11 486_8 *490:B 0
12 486_7 486_9 7.65714
13 486_9 *491:B 0
14 486_9 486_10 1.875
15 486_10 *492:B 0
16 486_6 486_11 4.62857
17 486_11 *493:B 0
18 486_3 486_12 6.08571
19 486_12 *494:B 0
*END
*D_NET *495 0.0126936
*CONN
*I *496:Y O *D BUFX2
*I *497:B I *L 0
*I *498:B I *L 0
*I *499:A I *L 0
*I *500:C I *L 0
*I *501:B I *L 0
*I *502:B I *L 0
*I *503:C I *L 0
*CAP
1 495_1 0.0039096
2 495_2 0.001116
3 495_3 0.0001008
4 495_4 0.0008712
5 495_5 3.6e-05
6 495_6 0.000288
7 495_7 0.002952
8 495_8 0.0001512
9 495_9 0.0004824
10 495_10 0.0001512
11 495_11 0.0009288
12 495_12 0.0004464
13 495_13 0.00126
*RES
1 *496:Y 495_1 16.3679
2 495_1 495_2 5.51786
3 495_2 495_3 0.514286
4 495_3 *497:B 0
5 495_2 495_4 3.27143
6 495_4 495_5 0.125
7 495_5 *498:B 0
8 495_5 495_6 1
9 495_6 *499:A 0
10 495_1 495_7 12.7143
11 495_7 495_8 0.771429
12 495_8 *500:C 0
13 495_7 495_9 1.75714
14 495_9 495_10 0.771429
15 495_10 *501:B 0
16 495_9 495_11 3.8
17 495_11 495_12 2.04286
18 495_12 *502:B 0
19 495_11 495_13 6.01786
20 495_13 *503:C 0
*END
*D_NET *504 0.0099936
*CONN
*I *505:Y O *D BUFX2
*I *506:B I *L 0
*I *507:B I *L 0
*I *508:B I *L 0
*I *509:B I *L 0
*I *510:B I *L 0
*I *511:B I *L 0
*I *512:B I *L 0
*CAP
1 504_1 0.000648
2 504_2 0.001368
3 504_3 0.003924
4 504_4 0.0002448
5 504_5 0.00036
6 504_6 0.0003024
7 504_7 0.0001008
8 504_8 0.0006336
9 504_9 0.0006336
10 504_10 0.000756
11 504_11 0.0005904
12 504_12 0.00018
13 504_13 0.000252
*RES
1 *505:Y 504_1 3.07143
2 504_1 504_2 5.16071
3 504_2 *506:B 0
4 504_1 504_3 18.9643
5 504_3 504_4 1.01429
6 504_4 *507:B 0
7 504_3 504_5 1.25
8 504_5 504_6 1.13214
9 504_6 504_7 0.514286
10 504_7 *508:B 0
11 504_6 504_8 2.52857
12 504_8 504_9 2.93929
13 504_9 *509:B 0
14 504_8 504_10 3.03571
15 504_10 *510:B 0
16 504_5 504_11 2.95357
17 504_11 504_12 0.625
18 504_12 *511:B 0
19 504_11 504_13 0.875
20 504_13 *512:B 0
*END
*D_NET *513 0.0083088
*CONN
*I *514:Y O *D BUFX2
*I *515:B I *L 0
*I *516:B I *L 0
*I *517:B I *L 0
*I *518:B I *L 0
*I *519:C I *L 0
*I *520:B I *L 0
*I *521:B I *L 0
*CAP
1 513_1 0.0007272
2 513_2 0.00036
3 513_3 0.0010512
4 513_4 0.0004104
5 513_5 0.000108
6 513_6 0.0006552
7 513_7 3.6e-05
8 513_8 0.000792
9 513_9 0.000972
10 513_10 0.0006552
11 513_11 0.001152
12 513_12 0.0007848
13 513_13 0.0006048
*RES
1 *514:Y 513_1 2.77143
2 513_1 513_2 1.66071
3 513_2 *515:B 0
4 513_1 513_3 5.12857
5 513_3 513_4 1.91786
6 513_4 *516:B 0
7 513_3 513_5 0.375
8 513_5 513_6 2.93214
9 513_6 513_7 0.125
10 513_7 *517:B 0
11 513_7 513_8 2.75
12 513_8 *518:B 0
13 513_5 513_9 3.375
14 513_9 513_10 2.93214
15 513_10 *519:C 0
16 513_9 513_11 4
17 513_11 513_12 3.3
18 513_12 *520:B 0
19 513_11 513_13 2.675
20 513_13 *521:B 0
*END
*D_NET *522 0.007308
*CONN
*I *523:Q O *D _1522
*I *524:B I *L 0
*I *525:A I *L 0
*I *526:A I *L 0
*I *527:A I *L 0
*I *528:A I *L 0
*I *529:A I *L 0
*I *530:A I *L 0
*CAP
1 522_1 0.000396
2 522_2 0.000324
3 522_3 0.001404
4 522_4 0.0004536
5 522_5 0.0005832
6 522_6 0.0003888
7 522_7 0.0007416
8 522_8 0.0016776
9 522_9 0.0001008
10 522_10 0.0012024
11 522_11 3.6e-05
*RES
1 *523:Q 522_1 1.375
2 522_1 522_2 1.125
3 522_2 *524:B 0
4 522_2 522_3 5.69643
5 522_3 522_4 2.31429
6 522_4 *525:A 0
7 522_3 522_5 2.68214
8 522_5 *526:A 0
9 522_5 522_6 1.925
10 522_6 522_7 2.90357
11 522_7 *527:A 0
12 522_6 522_8 7.38571
13 522_8 522_9 0.514286
14 522_9 *528:A 0
15 522_8 522_10 5.48929
16 522_10 *529:A 0
17 522_1 522_11 0.125
18 522_11 *530:A 0
*END
*D_NET *531 0.0080928
*CONN
*I *532:Y O *D _1044
*I *533:B I *L 0
*I *534:B I *L 0
*I *535:B I *L 0
*I *536:A I *L 0
*I *537:B I *L 0
*I *538:A I *L 0
*I *539:A I *L 0
*CAP
1 531_1 0.0014832
2 531_2 0.001116
3 531_3 0.0003024
4 531_4 0.000252
5 531_5 0.0003024
6 531_6 0.00018
7 531_7 0.0006912
8 531_8 0.0001008
9 531_9 0.0004248
10 531_10 0.0018072
11 531_11 0.0011448
12 531_12 0.000108
13 531_13 0.00018
*RES
1 *532:Y 531_1 7.03929
2 531_1 531_2 3.875
3 531_2 531_3 1.54286
4 531_3 *533:B 0
5 531_2 531_4 0.875
6 531_4 531_5 1.54286
7 531_5 *534:B 0
8 531_4 531_6 0.625
9 531_6 531_7 3.05714
10 531_7 531_8 0.514286
11 531_8 *535:B 0
12 531_7 531_9 1.63929
13 531_9 *536:A 0
14 531_6 531_10 8.98571
15 531_10 *537:B 0
16 531_1 531_11 5.78214
17 531_11 531_12 0.375
18 531_12 *538:A 0
19 531_11 531_13 0.625
20 531_13 *539:A 0
*END
*D_NET *540 0.0091152
*CONN
*I *541:Y O *D _1101
*I *542:B I *L 0
*I *543:B I *L 0
*I *544:B I *L 0
*I *545:A I *L 0
*I *546:B I *L 0
*I *547:A I *L 0
*I *548:B I *L 0
*CAP
1 540_1 0.0024408
2 540_2 0.0003024
3 540_3 0.0010152
4 540_4 0.0007056
5 540_5 0.0002016
6 540_6 0.0004896
7 540_7 0.002484
8 540_8 0.00054
9 540_9 0.000432
10 540_10 0.000504
*RES
1 *541:Y 540_1 9.46071
2 540_1 540_2 1.54286
3 540_2 *542:B 0
4 540_1 540_3 4.18214
5 540_3 *543:B 0
6 540_3 540_4 3.6
7 540_4 540_5 1.02857
8 540_5 *544:B 0
9 540_4 540_6 2.02857
10 540_6 *545:A 0
11 540_6 540_7 11.9107
12 540_7 *546:B 0
13 540_7 540_8 2.28571
14 540_8 540_9 1.91071
15 540_9 *547:A 0
16 540_8 540_10 2.57143
17 540_10 *548:B 0
*END
*D_NET *549 0.0123264
*CONN
*I *550:Y O *D _1105
*I *551:C I *L 0
*I *552:A I *L 0
*I *553:B I *L 0
*I *554:C I *L 0
*I *555:C I *L 0
*I *556:A I *L 0
*I *557:C I *L 0
*CAP
1 549_1 0.003132
2 549_2 0.0001008
3 549_3 0.000648
4 549_4 0.0001008
5 549_5 0.0001584
6 549_6 0.0020736
7 549_7 0.0021312
8 549_8 0.000216
9 549_9 0.0005544
10 549_10 0.0010224
11 549_11 0.000252
12 549_12 0.0019368
*RES
1 *550:Y 549_1 14.325
2 549_1 549_2 0.514286
3 549_2 *551:C 0
4 549_1 549_3 2.25
5 549_3 549_4 0.514286
6 549_4 *552:A 0
7 549_3 549_5 0.632143
8 549_5 549_6 9.99286
9 549_6 *553:B 0
10 549_5 549_7 7.64643
11 549_7 549_8 0.75
12 549_8 549_9 2.82857
13 549_9 *554:C 0
14 549_8 549_10 4.45357
15 549_10 *555:C 0
16 549_10 549_11 0.875
17 549_11 *556:A 0
18 549_7 549_12 8.61429
19 549_12 *557:C 0
*END
*D_NET *558 0.0080712
*CONN
*I *559:Q O *D _1499
*I *560:A I *L 0
*I *561:B I *L 0
*I *562:A I *L 0
*I *563:B I *L 0
*I *564:A I *L 0
*I *565:B I *L 0
*I *566:A I *L 0
*CAP
1 558_1 0.0012168
2 558_2 0.000828
3 558_3 0.0001008
4 558_4 0.0005976
5 558_5 0.0013608
6 558_6 0.000396
7 558_7 0.0002304
8 558_8 0.0001512
9 558_9 0.0008064
10 558_10 0.0003168
11 558_11 0.0004536
12 558_12 0.0016128
*RES
1 *559:Q 558_1 5.21071
2 558_1 558_2 2.95714
3 558_2 558_3 0.514286
4 558_3 *560:A 0
5 558_2 558_4 2.40357
6 558_4 *561:B 0
7 558_1 558_5 6.94286
8 558_5 *562:A 0
9 558_5 558_6 1.78571
10 558_6 558_7 0.882143
11 558_7 558_8 0.771429
12 558_8 *563:B 0
13 558_7 558_9 3.29286
14 558_9 558_10 1.26429
15 558_10 *564:A 0
16 558_9 558_11 2.31429
17 558_11 *565:B 0
18 558_6 558_12 6.58571
19 558_12 *566:A 0
*END
*D_NET *567 0.0056304
*CONN
*I *568:Q O *D _1495
*I *569:B I *L 0
*I *570:B I *L 0
*I *571:A I *L 0
*I *572:B I *L 0
*I *573:A I *L 0
*I *574:C I *L 0
*I *575:B I *L 0
*CAP
1 567_1 0.0005832
2 567_2 0.0001512
3 567_3 0.000324
4 567_4 0.000108
5 567_5 0.0001512
6 567_6 0.000648
7 567_7 0.00018
8 567_8 0.0006192
9 567_9 0.0011088
10 567_10 0.0001872
11 567_11 0.0010584
12 567_12 0.0005112
*RES
1 *568:Q 567_1 2.68214
2 567_1 567_2 0.771429
3 567_2 *569:B 0
4 567_1 567_3 1.125
5 567_3 567_4 0.375
6 567_4 567_5 0.771429
7 567_5 *570:B 0
8 567_4 567_6 2.25
9 567_6 567_7 0.625
10 567_7 567_8 2.80714
11 567_8 *571:A 0
12 567_7 567_9 4.83571
13 567_9 *572:B 0
14 567_6 567_10 0.896429
15 567_10 *573:A 0
16 567_3 567_11 5.4
17 567_11 *574:C 0
18 567_11 567_12 2.02143
19 567_12 *575:B 0
*END
*D_NET *576 0.0076104
*CONN
*I *577:Q O *D _1494
*I *578:A I *L 0
*I *579:A I *L 0
*I *580:A I *L 0
*I *581:A I *L 0
*I *582:A I *L 0
*I *583:A I *L 0
*I *584:B I *L 0
*CAP
1 576_1 0.000144
2 576_2 0.000504
3 576_3 0.000756
4 576_4 0.0001008
5 576_5 0.0002304
6 576_6 0.000504
7 576_7 0.0001008
8 576_8 0.0010152
9 576_9 0.0013752
10 576_10 3.6e-05
11 576_11 0.0012168
12 576_12 0.0002952
13 576_13 0.001332
*RES
1 *577:Q 576_1 0.5
2 576_1 576_2 2.57143
3 576_2 *578:A 0
4 576_1 576_3 3.85714
5 576_3 576_4 0.514286
6 576_4 *579:A 0
7 576_3 576_5 0.882143
8 576_5 576_6 2.16071
9 576_6 576_7 0.514286
10 576_7 *580:A 0
11 576_6 576_8 4.18214
12 576_8 *581:A 0
13 576_5 576_9 5.84286
14 576_9 576_10 0.125
15 576_10 *582:A 0
16 576_10 576_11 5.21071
17 576_11 576_12 1.27143
18 576_12 *583:A 0
19 576_11 576_13 6.02143
20 576_13 *584:B 0
*END
*D_NET *585 0.0077544
*CONN
*I *586:Q O *D _1512
*I *587:A I *L 0
*I *588:A I *L 0
*I *589:B I *L 0
*I *590:A I *L 0
*I *591:B I *L 0
*I *592:B I *L 0
*I *593:A I *L 0
*CAP
1 585_1 0.0004968
2 585_2 0.000324
3 585_3 0.0002016
4 585_4 0.000684
5 585_5 0.0005544
6 585_6 0.0008928
7 585_7 0.0017424
8 585_8 0.0001512
9 585_9 0.0008568
10 585_10 0.0001008
11 585_11 0.00108
12 585_12 0.0006696
*RES
1 *586:Q 585_1 2.3
2 585_1 585_2 1.125
3 585_2 585_3 1.02857
4 585_3 *587:A 0
5 585_2 585_4 2.375
6 585_4 585_5 2.82857
7 585_5 *588:A 0
8 585_4 585_6 3.675
9 585_6 *589:B 0
10 585_6 585_7 7.36429
11 585_7 585_8 0.771429
12 585_8 *590:A 0
13 585_7 585_9 3.55
14 585_9 585_10 0.514286
15 585_10 *591:B 0
16 585_9 585_11 4.16071
17 585_11 *592:B 0
18 585_1 585_12 3.06429
19 585_12 *593:A 0
*END
*D_NET *594 0.008172
*CONN
*I *595:Q O *D _1503
*I *596:B I *L 0
*I *597:A I *L 0
*I *598:A I *L 0
*I *599:B I *L 0
*I *600:A I *L 0
*I *601:A I *L 0
*I *602:B I *L 0
*CAP
1 594_1 0.0012888
2 594_2 0.000576
3 594_3 0.00036
4 594_4 0.000252
5 594_5 0.0001512
6 594_6 0.000576
7 594_7 0.0001512
8 594_8 0.000324
9 594_9 0.0007704
10 594_10 0.000936
11 594_11 0.0008136
12 594_12 0.0008136
13 594_13 0.0011592
*RES
1 *595:Q 594_1 6.28214
2 594_1 594_2 2
3 594_2 594_3 1.25
4 594_3 594_4 0.875
5 594_4 594_5 0.771429
6 594_5 *596:B 0
7 594_4 594_6 2
8 594_6 594_7 0.771429
9 594_7 *597:A 0
10 594_6 594_8 1.125
11 594_8 594_9 3.57857
12 594_9 *598:A 0
13 594_8 594_10 4.48214
14 594_10 *599:B 0
15 594_3 594_11 3.975
16 594_11 *600:A 0
17 594_2 594_12 3.975
18 594_12 *601:A 0
19 594_1 594_13 5.91429
20 594_13 *602:B 0
*END
*D_NET *603 0.0135288
*CONN
*I *604:Q O *D _1526
*I *605:A I *L 0
*I *606:A I *L 0
*I *607:A I *L 0
*I *608:B I *L 0
*I *609:B I *L 0
*I *610:B I *L 0
*I *611:B I *L 0
*CAP
1 603_1 0.000648
2 603_2 0.0003024
3 603_3 0.0036072
4 603_4 0.0002592
5 603_5 0.000576
6 603_6 0.002376
7 603_7 0.0013104
8 603_8 0.0013464
9 603_9 0.0001512
10 603_10 0.0010944
11 603_11 0.0003528
12 603_12 0.0015048
*RES
1 *604:Q 603_1 3.07143
2 603_1 *605:A 0
3 603_1 603_2 1.54286
4 603_2 603_3 14.4143
5 603_3 603_4 1.14643
6 603_4 *606:A 0
7 603_3 603_5 2.41071
8 603_5 *607:A 0
9 603_2 603_6 8.25
10 603_6 603_7 6.275
11 603_7 *608:B 0
12 603_6 603_8 4.75714
13 603_8 603_9 0.771429
14 603_9 *609:B 0
15 603_8 603_10 4.29286
16 603_10 603_11 1.8
17 603_11 *610:B 0
18 603_10 603_12 7.03214
19 603_12 *611:B 0
*END
*D_NET *612 0.0292608
*CONN
*I *613:Y O *D _1151
*I *614:A I *L 0
*I *615:B I *L 0
*I *616:A I *L 0
*I *617:B I *L 0
*I *618:A I *L 0
*I *619:A I *L 0
*I *620:A I *L 0
*CAP
1 612_1 0.000936
2 612_2 0.0008424
3 612_3 0.0023328
4 612_4 0.000252
5 612_5 0.0028296
6 612_6 0.0030672
7 612_7 0.0007128
8 612_8 0.0055584
9 612_9 0.001152
10 612_10 0.0041904
11 612_11 0.0016992
12 612_12 0.0027216
13 612_13 0.0029664
*RES
1 *613:Y 612_1 4.48214
2 612_1 612_2 3.00714
3 612_2 612_3 11.55
4 612_3 612_4 0.875
5 612_4 *614:A 0
6 612_3 612_5 10.975
7 612_5 *615:B 0
8 612_2 612_6 14.675
9 612_6 612_7 3.46071
10 612_7 *616:A 0
11 612_6 612_8 22.6679
12 612_8 *617:B 0
13 612_1 612_9 4
14 612_9 612_10 19.15
15 612_10 *618:A 0
16 612_9 612_11 6.55714
17 612_11 612_12 11.4214
18 612_12 *619:A 0
19 612_11 612_13 14.4893
20 612_13 *620:A 0
*END
*D_NET *621 0.0074088
*CONN
*I *622:Y O *D _1490
*I *623:B I *L 0
*I *624:B I *L 0
*I *625:A I *L 0
*I *626:A I *L 0
*I *627:B I *L 0
*I *628:B I *L 0
*I *629:A I *L 0
*CAP
1 621_1 0.0005472
2 621_2 3.6e-05
3 621_3 0.000396
4 621_4 0.000108
5 621_5 0.0017352
6 621_6 0.0004032
7 621_7 0.00054
8 621_8 0.000252
9 621_9 0.0001512
10 621_10 0.0014976
11 621_11 0.0011376
12 621_12 0.0006048
*RES
1 *622:Y 621_1 2.14643
2 621_1 621_2 0.125
3 621_2 *623:B 0
4 621_2 621_3 1.375
5 621_3 621_4 0.375
6 621_4 *624:B 0
7 621_3 621_5 6.27143
8 621_5 621_6 2.05714
9 621_6 *625:A 0
10 621_5 621_7 1.875
11 621_7 621_8 0.875
12 621_8 621_9 0.771429
13 621_9 *626:A 0
14 621_8 621_10 5.52857
15 621_10 *627:B 0
16 621_10 621_11 5.1
17 621_11 *628:B 0
18 621_7 621_12 3.08571
19 621_12 *629:A 0
*END
*D_NET *630 0.0124272
*CONN
*I *631:Y O *D _1601
*I *632:B I *L 0
*I *633:B I *L 0
*I *634:B I *L 0
*I *635:B I *L 0
*I *636:B I *L 0
*I *637:B I *L 0
*I *638:B I *L 0
*CAP
1 630_1 0.0015912
2 630_2 0.0013608
3 630_3 0.0001008
4 630_4 0.0017784
5 630_5 0.0007704
6 630_6 0.002232
7 630_7 0.000108
8 630_8 0.00018
9 630_9 0.0027072
10 630_10 0.0009432
11 630_11 0.0002016
12 630_12 0.0004536
*RES
1 *631:Y 630_1 5.77143
2 630_1 630_2 6.94286
3 630_2 630_3 0.514286
4 630_3 *632:B 0
5 630_2 630_4 8.22857
6 630_4 630_5 3.08571
7 630_5 *633:B 0
8 630_4 630_6 9.39286
9 630_6 630_7 0.375
10 630_7 *634:B 0
11 630_6 630_8 0.625
12 630_8 *635:B 0
13 630_8 630_9 10.4679
14 630_9 *636:B 0
15 630_1 630_10 3.52143
16 630_10 630_11 1.02857
17 630_11 *637:B 0
18 630_10 630_12 1.90357
19 630_12 *638:B 0
*END
*D_NET *639 0.0212472
*CONN
*I *640:Y O *D _1665
*I *641:B I *L 0
*I *642:D I *L 0
*I *643:A I *L 0
*I *644:B I *L 0
*I *645:B I *L 0
*I *646:A I *L 0
*I *647:A I *L 0
*CAP
1 639_1 0.0004392
2 639_2 0.0020952
3 639_3 0.0035496
4 639_4 0.0009
5 639_5 0.0050544
6 639_6 0.000792
7 639_7 0.000252
8 639_8 0.0016128
9 639_9 0.0011088
10 639_10 0.0008208
11 639_11 0.0046224
*RES
1 *640:Y 639_1 2.18214
2 639_1 639_2 9.98571
3 639_2 *641:B 0
4 639_1 639_3 13.475
5 639_3 639_4 4.02857
6 639_4 *642:D 0
7 639_3 639_5 18.4536
8 639_5 639_6 3.16071
9 639_6 639_7 1.28571
10 639_7 *643:A 0
11 639_6 639_8 6.58571
12 639_8 *644:B 0
13 639_5 639_9 5.24643
14 639_9 *645:B 0
15 639_9 639_10 3.83571
16 639_10 *646:A 0
17 639_10 639_11 17.3643
18 639_11 *647:A 0
*END
*D_NET *648 0.0097848
*CONN
*I *649:Q O *D _1987
*I *650:A I *L 0
*I *651:A I *L 0
*I *652:A I *L 0
*I *653:A I *L 0
*I *654:A I *L 0
*I *655:A I *L 0
*I *656:A I *L 0
*CAP
1 648_1 0.0014616
2 648_2 0.0001008
3 648_3 0.0008064
4 648_4 0.0009144
5 648_5 0.0015696
6 648_6 0.0001008
7 648_7 0.001008
8 648_8 0.000612
9 648_9 0.0009936
10 648_10 0.0001008
11 648_11 0.0006552
12 648_12 0.0001008
13 648_13 0.0013608
*RES
1 *649:Q 648_1 5.81429
2 648_1 648_2 0.514286
3 648_2 *650:A 0
4 648_1 648_3 4.11429
5 648_3 648_4 3.25714
6 648_4 648_5 7.83214
7 648_5 *651:A 0
8 648_4 648_6 0.514286
9 648_6 *652:A 0
10 648_3 648_7 5.14286
11 648_7 648_8 2.94643
12 648_8 *653:A 0
13 648_7 648_9 3.77857
14 648_9 648_10 0.514286
15 648_10 *654:A 0
16 648_9 648_11 2.35714
17 648_11 648_12 0.514286
18 648_12 *655:A 0
19 648_11 648_13 6.28571
20 648_13 *656:A 0
*END
*D_NET *657 0.0088056
*CONN
*I *658:Y O *D _1910
*I *659:A I *L 0
*I *660:A I *L 0
*I *661:A I *L 0
*I *662:A I *L 0
*I *663:B I *L 0
*I *664:A I *L 0
*I *665:A I *L 0
*CAP
1 657_1 0.0038808
2 657_2 0.000252
3 657_3 0.00036
4 657_4 0.000252
5 657_5 0.00072
6 657_6 5.04e-05
7 657_7 0.000504
8 657_8 0.0004536
9 657_9 0.0005688
10 657_10 0.0009
11 657_11 0.000252
12 657_12 0.000612
*RES
1 *658:Y 657_1 14.4607
2 657_1 657_2 1.28571
3 657_2 *659:A 0
4 657_1 657_3 1.25
5 657_3 657_4 1.28571
6 657_4 *660:A 0
7 657_3 657_5 2.5
8 657_5 657_6 0.257143
9 657_6 657_7 2.57143
10 657_7 *661:A 0
11 657_6 657_8 2.31429
12 657_8 *662:A 0
13 657_6 657_9 2.55
14 657_9 *663:B 0
15 657_5 657_10 3.125
16 657_10 657_11 1.28571
17 657_11 *664:A 0
18 657_10 657_12 2.53571
19 657_12 *665:A 0
*END
*D_NET *666 0.0119952
*CONN
*I *667:Y O *D BUFX2
*I *668:C I *L 0
*I *669:C I *L 0
*I *670:C I *L 0
*I *671:C I *L 0
*I *672:C I *L 0
*I *673:C I *L 0
*CAP
1 666_1 0.001764
2 666_2 0.0003024
3 666_3 0.0010656
4 666_4 0.002376
5 666_5 0.00054
6 666_6 0.0001008
7 666_7 0.000216
8 666_8 0.0016056
9 666_9 0.0027432
10 666_10 0.0012816
*RES
1 *667:Y 666_1 6.94643
2 666_1 666_2 1.54286
3 666_2 *668:C 0
4 666_1 666_3 4.43929
5 666_3 *669:C 0
6 666_3 666_4 10.3036
7 666_4 666_5 1.875
8 666_5 666_6 0.514286
9 666_6 *670:C 0
10 666_5 666_7 0.75
11 666_7 666_8 7.13571
12 666_8 *671:C 0
13 666_7 666_9 13.0571
14 666_9 *672:C 0
15 666_4 666_10 6.01071
16 666_10 *673:C 0
*END
*D_NET *674 0.0176328
*CONN
*I *675:Y O *D BUFX2
*I *676:C I *L 0
*I *677:D I *L 0
*I *678:C I *L 0
*I *679:C I *L 0
*I *680:C I *L 0
*I *681:C I *L 0
*CAP
1 674_1 0.000504
2 674_2 0.001404
3 674_3 0.0029448
4 674_4 0.0004464
5 674_5 0.0027432
6 674_6 0.00162
7 674_7 0.001836
8 674_8 0.000756
9 674_9 0.0008496
10 674_10 0.0017208
11 674_11 0.002808
*RES
1 *675:Y 674_1 2.57143
2 674_1 674_2 6.51786
3 674_2 *676:C 0
4 674_1 674_3 11.2929
5 674_3 674_4 2.04286
6 674_4 *677:D 0
7 674_3 674_5 12.3179
8 674_5 674_6 7.84286
9 674_6 *678:C 0
10 674_5 674_7 6.375
11 674_7 674_8 3.85714
12 674_8 674_9 3.77143
13 674_9 *679:C 0
14 674_8 674_10 6.96071
15 674_10 *680:C 0
16 674_7 674_11 12.625
17 674_11 *681:C 0
*END
*D_NET *682 0.0107136
*CONN
*I *683:Y O *D BUFX2
*I *684:A I *L 0
*I *685:A I *L 0
*I *686:C I *L 0
*I *687:C I *L 0
*I *688:C I *L 0
*I *689:B I *L 0
*CAP
1 682_1 0.000252
2 682_2 0.000864
3 682_3 0.0019872
4 682_4 0.000252
5 682_5 0.000252
6 682_6 0.0003024
7 682_7 0.00054
8 682_8 0.002412
9 682_9 0.000612
10 682_10 0.001224
11 682_11 0.002016
*RES
1 *683:Y 682_1 1.28571
2 682_1 682_2 3.41071
3 682_2 *684:A 0
4 682_1 682_3 9.2
5 682_3 682_4 1.28571
6 682_4 682_5 1.28571
7 682_5 682_6 1.54286
8 682_6 *685:A 0
9 682_5 682_7 2.28571
10 682_7 *686:C 0
11 682_4 682_8 8.375
12 682_8 682_9 2.94643
13 682_9 *687:C 0
14 682_8 682_10 5.89286
15 682_10 *688:C 0
16 682_3 682_11 8.23214
17 682_11 *689:B 0
*END
*D_NET *690 0.009288
*CONN
*I *691:Y O *D BUFX2
*I *692:B I *L 0
*I *693:B I *L 0
*I *694:A I *L 0
*I *695:C I *L 0
*I *696:B I *L 0
*I *697:B I *L 0
*CAP
1 690_1 0.0010008
2 690_2 0.0006048
3 690_3 0.0003672
4 690_4 0.000252
5 690_5 0.00018
6 690_6 0.0022104
7 690_7 0.000144
8 690_8 0.0008568
9 690_9 0.003672
*RES
1 *691:Y 690_1 4.87143
2 690_1 690_2 3.08571
3 690_2 690_3 1.52143
4 690_3 *692:B 0
5 690_2 690_4 1.28571
6 690_4 690_5 0.625
7 690_5 *693:B 0
8 690_4 690_6 8.98929
9 690_6 *694:A 0
10 690_1 690_7 0.5
11 690_7 *695:C 0
12 690_1 690_8 4.37143
13 690_8 *696:B 0
14 690_8 690_9 15.2143
15 690_9 *697:B 0
*END
*D_NET *698 0.0236952
*CONN
*I *699:Q O *D _1012
*I *700:A I *L 0
*I *701:C I *L 0
*I *702:B I *L 0
*I *703:A I *L 0
*I *704:A I *L 0
*I *705:A I *L 0
*CAP
1 698_1 0.0008712
2 698_2 0.0007056
3 698_3 0.000756
4 698_4 0.0043272
5 698_5 0.0012384
6 698_6 0.0035208
7 698_7 0.002556
8 698_8 0.0011232
9 698_9 0.0035784
10 698_10 0.0050184
*RES
1 *699:Q 698_1 4.09286
2 698_1 698_2 3.6
3 698_2 *700:A 0
4 698_1 698_3 2.625
5 698_3 *701:C 0
6 698_3 698_4 15.7643
7 698_4 698_5 5.61429
8 698_5 *702:B 0
9 698_4 698_6 17.7286
10 698_6 698_7 8.875
11 698_7 698_8 4.55714
12 698_8 *703:A 0
13 698_7 698_9 16.6143
14 698_9 *704:A 0
15 698_6 698_10 24.0786
16 698_10 *705:A 0
*END
*D_NET *706 0.0088776
*CONN
*I *707:Y O *D _1043
*I *708:A I *L 0
*I *709:A I *L 0
*I *710:C I *L 0
*I *711:B I *L 0
*I *712:B I *L 0
*I *713:B I *L 0
*CAP
1 706_1 0.0003384
2 706_2 0.0008064
3 706_3 0.0006984
4 706_4 0.0011592
5 706_5 0.000792
6 706_6 0.0032832
7 706_7 5.04e-05
8 706_8 0.000252
9 706_9 0.0007488
10 706_10 0.0007488
*RES
1 *707:Y 706_1 1.25714
2 706_1 706_2 4.11429
3 706_2 *708:A 0
4 706_2 706_3 2.91786
5 706_3 *709:A 0
6 706_1 706_4 5.91429
7 706_4 706_5 3.16071
8 706_5 *710:C 0
9 706_4 706_6 14.5214
10 706_6 706_7 0.257143
11 706_7 706_8 1.28571
12 706_8 *711:B 0
13 706_7 706_9 3.175
14 706_9 *712:B 0
15 706_6 706_10 3.175
16 706_10 *713:B 0
*END
*D_NET *714 0.0058392
*CONN
*I *715:Y O *D _1058
*I *716:A I *L 0
*I *717:A I *L 0
*I *718:B I *L 0
*I *719:A I *L 0
*I *720:A I *L 0
*I *721:B I *L 0
*CAP
1 714_1 0.0004896
2 714_2 0.000144
3 714_3 0.0002448
4 714_4 0.0008568
5 714_5 0.0005184
6 714_6 0.0001512
7 714_7 0.000432
8 714_8 0.0023112
9 714_9 0.0002016
10 714_10 0.0004896
*RES
1 *715:Y 714_1 2.43929
2 714_1 714_2 0.5
3 714_2 714_3 1.01429
4 714_3 *716:A 0
5 714_2 714_4 4.37143
6 714_4 *717:A 0
7 714_1 714_5 1.88214
8 714_5 714_6 0.771429
9 714_6 *718:B 0
10 714_6 714_7 1.5
11 714_7 *719:A 0
12 714_5 714_8 10.7357
13 714_8 714_9 1.02857
14 714_9 *720:A 0
15 714_8 714_10 2.02857
16 714_10 *721:B 0
*END
*D_NET *722 0.007128
*CONN
*I *723:Y O *D _1092
*I *724:A I *L 0
*I *725:A I *L 0
*I *726:A I *L 0
*I *727:A I *L 0
*I *728:B I *L 0
*I *729:B I *L 0
*CAP
1 722_1 0.0029016
2 722_2 0.000108
3 722_3 0.00018
4 722_4 0.0003528
5 722_5 0.000504
6 722_6 0.000432
7 722_7 0.0008568
8 722_8 0.0015408
9 722_9 0.000108
10 722_10 0.000144
*RES
1 *723:Y 722_1 13.3607
2 722_1 *724:A 0
3 722_1 722_2 0.375
4 722_2 722_3 0.625
5 722_3 *725:A 0
6 722_2 722_4 1.8
7 722_4 722_5 2.57143
8 722_5 *726:A 0
9 722_4 722_6 1.5
10 722_6 722_7 3.96071
11 722_7 *727:A 0
12 722_6 722_8 6.33571
13 722_8 722_9 0.375
14 722_9 *728:B 0
15 722_8 722_10 0.5
16 722_10 *729:B 0
*END
*D_NET *730 0.0063288
*CONN
*I *731:Q O *D _1507
*I *732:A I *L 0
*I *733:A I *L 0
*I *734:B I *L 0
*I *735:A I *L 0
*I *736:B I *L 0
*I *737:A I *L 0
*CAP
1 730_1 0.0007848
2 730_2 0.000216
3 730_3 0.0001512
4 730_4 0.000324
5 730_5 0.0013032
6 730_6 0.00108
7 730_7 0.000648
8 730_8 0.000432
9 730_9 0.0003312
10 730_10 0.0008712
11 730_11 0.0001872
*RES
1 *731:Q 730_1 3.71071
2 730_1 730_2 0.75
3 730_2 730_3 0.771429
4 730_3 *732:A 0
5 730_2 730_4 1.125
6 730_4 730_5 5.59286
7 730_5 *733:A 0
8 730_4 730_6 4.98214
9 730_6 *734:B 0
10 730_1 730_7 2.25
11 730_7 730_8 1.5
12 730_8 730_9 1.39643
13 730_9 *735:A 0
14 730_8 730_10 4.09286
15 730_10 *736:B 0
16 730_7 730_11 0.896429
17 730_11 *737:A 0
*END
*D_NET *738 0.005616
*CONN
*I *739:Q O *D _1505
*I *740:A I *L 0
*I *741:A I *L 0
*I *742:B I *L 0
*I *743:A I *L 0
*I *744:A I *L 0
*I *745:A I *L 0
*CAP
1 738_1 0.0008496
2 738_2 0.000252
3 738_3 0.0001512
4 738_4 0.0002664
5 738_5 0.0001512
6 738_6 0.001008
7 738_7 0.0004824
8 738_8 0.0004032
9 738_9 0.0005976
10 738_10 0.0010584
11 738_11 0.000396
*RES
1 *739:Q 738_1 4.1
2 738_1 738_2 0.875
3 738_2 738_3 0.771429
4 738_3 *740:A 0
5 738_2 738_4 1.00714
6 738_4 738_5 0.771429
7 738_5 *741:A 0
8 738_4 738_6 3.91071
9 738_6 738_7 1.75714
10 738_7 738_8 2.05714
11 738_8 *742:B 0
12 738_7 738_9 2.81429
13 738_9 *743:A 0
14 738_6 738_10 4.41429
15 738_10 *744:A 0
16 738_1 738_11 1.78571
17 738_11 *745:A 0
*END
*D_NET *746 0.0211032
*CONN
*I *747:Q O *D _1506
*I *748:A I *L 0
*I *749:A I *L 0
*I *750:B I *L 0
*I *751:A I *L 0
*I *752:A I *L 0
*I *753:A I *L 0
*CAP
1 746_1 0.0001008
2 746_2 0.0023832
3 746_3 0.0002088
4 746_4 0.0007056
5 746_5 0.0016056
6 746_6 0.0001512
7 746_7 0.0013032
8 746_8 0.0008136
9 746_9 0.000144
10 746_10 0.0136872
*RES
1 *747:Q 746_1 0.514286
2 746_1 746_2 10.575
3 746_2 746_3 0.889286
4 746_3 *748:A 0
5 746_2 746_4 3.18929
6 746_4 *749:A 0
7 746_4 746_5 5.90357
8 746_5 746_6 0.771429
9 746_6 *750:B 0
10 746_5 746_7 5.18214
11 746_7 *751:A 0
12 746_1 746_8 3.15357
13 746_8 746_9 0.5
14 746_9 *752:A 0
15 746_8 746_10 65.4321
16 746_10 *753:A 0
*END
*D_NET *754 0.0070344
*CONN
*I *755:Q O *D _1498
*I *756:A I *L 0
*I *757:B I *L 0
*I *758:A I *L 0
*I *759:A I *L 0
*I *760:A I *L 0
*I *761:A I *L 0
*CAP
1 754_1 0.000252
2 754_2 0.000864
3 754_3 0.0009576
4 754_4 0.0005544
5 754_5 3.6e-05
6 754_6 0.0011232
7 754_7 0.0003744
8 754_8 0.00072
9 754_9 0.0016416
10 754_10 0.0001008
11 754_11 0.0004104
*RES
1 *755:Q 754_1 1.28571
2 754_1 754_2 3.41071
3 754_2 754_3 4.88571
4 754_3 754_4 2.82857
5 754_4 *756:A 0
6 754_3 754_5 0.125
7 754_5 754_6 4.55714
8 754_6 *757:B 0
9 754_5 754_7 1.38214
10 754_7 754_8 3.32143
11 754_8 *758:A 0
12 754_7 754_9 6.43929
13 754_9 *759:A 0
14 754_2 754_10 0.514286
15 754_10 *760:A 0
16 754_1 754_11 1.91786
17 754_11 *761:A 0
*END
*D_NET *762 0.0077544
*CONN
*I *763:Q O *D _1497
*I *764:A I *L 0
*I *765:A I *L 0
*I *766:B I *L 0
*I *767:A I *L 0
*I *768:B I *L 0
*I *769:A I *L 0
*CAP
1 762_1 0.0007488
2 762_2 0.000648
3 762_3 0.0003528
4 762_4 0.0008064
5 762_5 0.000648
6 762_6 0.0001008
7 762_7 0.0005976
8 762_8 0.000864
9 762_9 0.0014832
10 762_10 0.0015048
*RES
1 *763:Q 762_1 3.58571
2 762_1 *764:A 0
3 762_1 762_2 3.07143
4 762_2 762_3 1.8
5 762_3 *765:A 0
6 762_2 762_4 2.88214
7 762_4 762_5 3.07143
8 762_5 762_6 0.514286
9 762_6 *766:B 0
10 762_5 762_7 2.81429
11 762_7 *767:A 0
12 762_4 762_8 3
13 762_8 762_9 6.62857
14 762_9 *768:B 0
15 762_8 762_10 7.44286
16 762_10 *769:A 0
*END
*D_NET *770 0.0086112
*CONN
*I *771:Q O *D _1511
*I *772:A I *L 0
*I *773:B I *L 0
*I *774:A I *L 0
*I *775:A I *L 0
*I *776:A I *L 0
*I *777:A I *L 0
*CAP
1 770_1 0.0011376
2 770_2 0.0008856
3 770_3 0.001044
4 770_4 0.0005328
5 770_5 0.0001008
6 770_6 0.0009504
7 770_7 0.0001008
8 770_8 0.001152
9 770_9 0.0006768
10 770_10 0.0020304
*RES
1 *771:Q 770_1 5.1
2 770_1 *772:A 0
3 770_1 770_2 3.81429
4 770_2 770_3 4.85714
5 770_3 770_4 2.425
6 770_4 770_5 0.514286
7 770_5 *773:B 0
8 770_4 770_6 3.38214
9 770_6 770_7 0.514286
10 770_7 *774:A 0
11 770_6 770_8 5.31429
12 770_8 *775:A 0
13 770_3 770_9 2.925
14 770_9 *776:A 0
15 770_2 770_10 8.775
16 770_10 *777:A 0
*END
*D_NET *778 0.0071496
*CONN
*I *779:Y O *D _1548
*I *780:A I *L 0
*I *781:A I *L 0
*I *782:A I *L 0
*I *783:B I *L 0
*I *784:A I *L 0
*I *785:A I *L 0
*CAP
1 778_1 0.0004536
2 778_2 0.0012024
3 778_3 0.0010584
4 778_4 0.000108
5 778_5 0.0005256
6 778_6 0.0013104
7 778_7 0.0001512
8 778_8 0.000576
9 778_9 3.6e-05
10 778_10 0.001728
*RES
1 *779:Y 778_1 2.31429
2 778_1 778_2 4.66786
3 778_2 *780:A 0
4 778_1 778_3 5.4
5 778_3 778_4 0.375
6 778_4 *781:A 0
7 778_4 778_5 2.15357
8 778_5 *782:A 0
9 778_3 778_6 6.68571
10 778_6 778_7 0.771429
11 778_7 *783:B 0
12 778_6 778_8 2
13 778_8 778_9 0.125
14 778_9 *784:A 0
15 778_9 778_10 7.23214
16 778_10 *785:A 0
*END
*D_NET *786 0.006084
*CONN
*I *787:Q O *D _1988
*I *788:A I *L 0
*I *789:A I *L 0
*I *790:A I *L 0
*I *791:A I *L 0
*I *792:A I *L 0
*I *793:A I *L 0
*CAP
1 786_1 0.0001008
2 786_2 0.0009
3 786_3 0.0001008
4 786_4 0.0004608
5 786_5 0.00036
6 786_6 0.000324
7 786_7 3.6e-05
8 786_8 0.0027072
9 786_9 0.0002088
10 786_10 0.0008856
*RES
1 *787:Q 786_1 0.514286
2 786_1 786_2 3.125
3 786_2 786_3 0.514286
4 786_3 *788:A 0
5 786_2 786_4 2.175
6 786_4 786_5 1.66071
7 786_5 786_6 1.125
8 786_6 *789:A 0
9 786_5 786_7 0.125
10 786_7 *790:A 0
11 786_4 786_8 12.6857
12 786_8 *791:A 0
13 786_1 786_9 0.889286
14 786_9 *792:A 0
15 786_9 786_10 4.225
16 786_10 *793:A 0
*END
*D_NET *794 0.0080208
*CONN
*I *795:Y O *D _1727
*I *796:A I *L 0
*I *797:A I *L 0
*I *798:A I *L 0
*I *799:A I *L 0
*I *800:A I *L 0
*I *801:A I *L 0
*CAP
1 794_1 0.0013824
2 794_2 0.0004032
3 794_3 0.0001008
4 794_4 0.0006912
5 794_5 0.000216
6 794_6 0.0006408
7 794_7 0.0002016
8 794_8 0.000144
9 794_9 0.002556
10 794_10 0.0009648
11 794_11 0.00072
*RES
1 *795:Y 794_1 5.29286
2 794_1 794_2 2.05714
3 794_2 794_3 0.514286
4 794_3 *796:A 0
5 794_2 794_4 3.46786
6 794_4 794_5 0.75
7 794_5 794_6 2.38929
8 794_6 *797:A 0
9 794_5 794_7 1.02857
10 794_7 794_8 0.5
11 794_8 *798:A 0
12 794_7 794_9 11.75
13 794_9 *799:A 0
14 794_4 794_10 3.925
15 794_10 *800:A 0
16 794_1 794_11 2.91071
17 794_11 *801:A 0
*END
*D_NET *802 0.003456
*CONN
*I *803:Q O *D _1971
*I *804:A I *L 0
*I *805:B I *L 0
*I *806:B I *L 0
*I *807:A I *L 0
*I *808:A I *L 0
*I *809:A I *L 0
*CAP
1 802_1 0.0008712
2 802_2 0.000108
3 802_3 0.0001512
4 802_4 0.000324
5 802_5 5.04e-05
6 802_6 0.0001512
7 802_7 0.0007056
8 802_8 0.0002304
9 802_9 0.0004032
10 802_10 0.0004608
*RES
1 *803:Q 802_1 3.68214
2 802_1 802_2 0.375
3 802_2 *804:A 0
4 802_1 802_3 0.771429
5 802_3 *805:B 0
6 802_1 802_4 1.125
7 802_4 802_5 0.257143
8 802_5 802_6 0.771429
9 802_6 *806:B 0
10 802_5 802_7 3.6
11 802_7 *807:A 0
12 802_4 802_8 0.882143
13 802_8 802_9 2.05714
14 802_9 *808:A 0
15 802_8 802_10 2.175
16 802_10 *809:A 0
*END
*D_NET *810 0.0071064
*CONN
*I *811:Q O *D _1979
*I *812:A I *L 0
*I *813:B I *L 0
*I *814:C I *L 0
*I *815:A I *L 0
*I *816:B I *L 0
*I *817:A I *L 0
*CAP
1 810_1 0.0004536
2 810_2 0.0003024
3 810_3 7.2e-05
4 810_4 0.00018
5 810_5 0.000288
6 810_6 0.0004536
7 810_7 0.0013176
8 810_8 0.000504
9 810_9 0.002124
10 810_10 0.0010656
11 810_11 0.0003456
*RES
1 *811:Q 810_1 2.31429
2 810_1 810_2 1.13214
3 810_2 810_3 0.25
4 810_3 *812:A 0
5 810_2 810_4 0.625
6 810_4 810_5 1
7 810_5 810_6 2.31429
8 810_6 *813:B 0
9 810_5 810_7 5.31429
10 810_7 810_8 2.57143
11 810_8 *814:C 0
12 810_7 810_9 8.19643
13 810_9 *815:A 0
14 810_4 810_10 5.26071
15 810_10 *816:B 0
16 810_1 810_11 1.52857
17 810_11 *817:A 0
*END
*D_NET *818 0.0065016
*CONN
*I *819:Y O *D _930
*I *820:C I *L 0
*I *821:A I *L 0
*I *822:A I *L 0
*I *823:A I *L 0
*I *824:A I *L 0
*I *825:A I *L 0
*CAP
1 818_1 0.0013824
2 818_2 0.000288
3 818_3 0.0003024
4 818_4 0.000756
5 818_5 0.0003024
6 818_6 0.000108
7 818_7 0.0004536
8 818_8 0.0009144
9 818_9 0.0003528
10 818_10 0.0016416
*RES
1 *819:Y 818_1 5.29286
2 818_1 818_2 1
3 818_2 *820:C 0
4 818_1 818_3 1.54286
5 818_3 *821:A 0
6 818_1 818_4 2.625
7 818_4 818_5 1.54286
8 818_5 *822:A 0
9 818_4 818_6 0.375
10 818_6 818_7 2.31429
11 818_7 *823:A 0
12 818_6 818_8 3.25714
13 818_8 818_9 1.8
14 818_9 *824:A 0
15 818_8 818_10 6.43929
16 818_10 *825:A 0
*END
*D_NET *826 0.0108288
*CONN
*I *827:Y O *D BUFX2
*I *828:A I *L 0
*I *829:C I *L 0
*I *830:C I *L 0
*I *831:C I *L 0
*I *832:C I *L 0
*CAP
1 826_1 0.0001512
2 826_2 0.0008136
3 826_3 0.0029232
4 826_4 0.000252
5 826_5 0.0012744
6 826_6 0.0043128
7 826_7 0.0001008
8 826_8 0.0010008
*RES
1 *827:Y 826_1 0.771429
2 826_1 826_2 3.975
3 826_2 *828:A 0
4 826_2 826_3 13.2714
5 826_3 826_4 1.28571
6 826_4 *829:C 0
7 826_3 826_5 5.32857
8 826_5 *830:C 0
9 826_1 826_6 20.5607
10 826_6 826_7 0.514286
11 826_7 *831:C 0
12 826_6 826_8 3.63929
13 826_8 *832:C 0
*END
*D_NET *833 0.0104544
*CONN
*I *834:Y O *D BUFX2
*I *835:B I *L 0
*I *836:B I *L 0
*I *837:B I *L 0
*I *838:B I *L 0
*I *839:B I *L 0
*CAP
1 833_1 0.0002952
2 833_2 0.0016056
3 833_3 0.001656
4 833_4 0.001044
5 833_5 0.001404
6 833_6 0.0011376
7 833_7 0.000468
8 833_8 0.0011736
9 833_9 0.0016704
*RES
1 *834:Y 833_1 1.27143
2 833_1 833_2 7.54643
3 833_2 *835:B 0
4 833_1 833_3 7.88571
5 833_3 833_4 4.85714
6 833_4 *836:B 0
7 833_3 833_5 4.875
8 833_5 833_6 5.51071
9 833_6 *837:B 0
10 833_5 833_7 1.625
11 833_7 833_8 5.63571
12 833_8 *838:B 0
13 833_7 833_9 7.525
14 833_9 *839:B 0
*END
*D_NET *840 0.0070272
*CONN
*I *841:Y O *D BUFX2
*I *842:B I *L 0
*I *843:B I *L 0
*I *844:B I *L 0
*I *845:B I *L 0
*I *846:B I *L 0
*CAP
1 840_1 0.0003528
2 840_2 0.0004464
3 840_3 0.0001512
4 840_4 0.000972
5 840_5 0.00252
6 840_6 0.0002016
7 840_7 0.001296
8 840_8 0.0002016
9 840_9 0.0008856
*RES
1 *841:Y 840_1 1.8
2 840_1 840_2 1.63214
3 840_2 840_3 0.771429
4 840_3 *842:B 0
5 840_2 840_4 4.19643
6 840_4 *843:B 0
7 840_1 840_5 9.16071
8 840_5 840_6 1.02857
9 840_6 *844:B 0
10 840_5 840_7 4.5
11 840_7 840_8 1.02857
12 840_8 *845:B 0
13 840_7 840_9 3.40357
14 840_9 *846:B 0
*END
*D_NET *847 0.0110232
*CONN
*I *848:Y O *D BUFX2
*I *849:A I *L 0
*I *850:B I *L 0
*I *851:A I *L 0
*I *852:B I *L 0
*I *853:C I *L 0
*CAP
1 847_1 3.6e-05
2 847_2 0.0017856
3 847_3 0.0006696
4 847_4 0.0018504
5 847_5 0.0006552
6 847_6 0.0010368
7 847_7 0.0004176
8 847_8 0.0016992
9 847_9 0.0028728
*RES
1 *848:Y 847_1 0.125
2 847_1 847_2 6.93929
3 847_2 847_3 3.06429
4 847_3 *849:A 0
5 847_2 847_4 8.15
6 847_4 847_5 3.34286
7 847_5 *850:B 0
8 847_4 847_6 4.175
9 847_6 847_7 1.77857
10 847_7 *851:A 0
11 847_6 847_8 6.55714
12 847_8 *852:B 0
13 847_1 847_9 13.425
14 847_9 *853:C 0
*END
*D_NET *854 0.0085752
*CONN
*I *855:Y O *D BUFX2
*I *856:A I *L 0
*I *857:A I *L 0
*I *858:A I *L 0
*I *859:A I *L 0
*I *860:A I *L 0
*CAP
1 854_1 0.0013248
2 854_2 0.0002016
3 854_3 0.0025344
4 854_4 0.0004536
5 854_5 0.00054
6 854_6 0.0005544
7 854_7 0.0022104
8 854_8 0.0002016
9 854_9 0.0005544
*RES
1 *855:Y 854_1 5.58571
2 854_1 854_2 1.02857
3 854_2 *856:A 0
4 854_1 854_3 10.1143
5 854_3 854_4 2.31429
6 854_4 *857:A 0
7 854_3 854_5 1.875
8 854_5 854_6 2.82857
9 854_6 *858:A 0
10 854_5 854_7 7.75714
11 854_7 854_8 1.02857
12 854_8 *859:A 0
13 854_7 854_9 2.82857
14 854_9 *860:A 0
*END
*D_NET *861 0.0070416
*CONN
*I *862:Y O *D BUFX2
*I *863:C I *L 0
*I *864:B I *L 0
*I *865:A I *L 0
*I *866:A I *L 0
*I *867:C I *L 0
*CAP
1 861_1 0.0002016
2 861_2 0.0006552
3 861_3 0.001044
4 861_4 0.001188
5 861_5 0.0005904
6 861_6 0.0013104
7 861_7 3.6e-05
8 861_8 0.000396
9 861_9 0.00162
*RES
1 *862:Y 861_1 1.02857
2 861_1 861_2 3.34286
3 861_2 *863:C 0
4 861_1 861_3 3.625
5 861_3 861_4 5.35714
6 861_4 *864:B 0
7 861_3 861_5 2.13214
8 861_5 861_6 6.02857
9 861_6 861_7 0.125
10 861_7 *865:A 0
11 861_7 861_8 1.375
12 861_8 *866:A 0
13 861_5 861_9 7.67857
14 861_9 *867:C 0
*END
*D_NET *868 0.0358992
*CONN
*I *869:Y O *D _1668
*I *870:A I *L 0
*I *871:A I *L 0
*I *872:A I *L 0
*I *873:A I *L 0
*I *874:A I *L 0
*CAP
1 868_1 0.0003024
2 868_2 0.000504
3 868_3 0.0012816
4 868_4 0.0023472
5 868_5 0.0040608
6 868_6 0.0209952
7 868_7 0.0031824
8 868_8 0.0001008
9 868_9 0.0031248
*RES
1 *869:Y 868_1 1.54286
2 868_1 868_2 2.57143
3 868_2 868_3 5.6
4 868_3 *870:A 0
5 868_2 868_4 8.80714
6 868_4 868_5 17.1393
7 868_5 *871:A 0
8 868_4 868_6 97.7893
9 868_6 *872:A 0
10 868_1 868_7 11.5429
11 868_7 868_8 0.514286
12 868_8 *873:A 0
13 868_7 868_9 15.9429
14 868_9 *874:A 0
*END
*D_NET *875 0.0083736
*CONN
*I *876:Y O *D BUFX2
*I *877:C I *L 0
*I *878:C I *L 0
*I *879:C I *L 0
*I *880:B I *L 0
*I *881:A I *L 0
*CAP
1 875_1 0.0001008
2 875_2 0.0006768
3 875_3 0.0008568
4 875_4 0.000144
5 875_5 0.000468
6 875_6 0.002124
7 875_7 0.0023832
8 875_8 0.0005904
9 875_9 0.0010296
*RES
1 *876:Y 875_1 0.514286
2 875_1 875_2 2.51429
3 875_2 *877:C 0
4 875_1 875_3 4.37143
5 875_3 875_4 0.5
6 875_4 *878:C 0
7 875_3 875_5 2.03571
8 875_5 875_6 7.78571
9 875_6 *879:C 0
10 875_5 875_7 11.8071
11 875_7 875_8 2.54286
12 875_8 *880:B 0
13 875_7 875_9 4.39643
14 875_9 *881:A 0
*END
*D_NET *882 0.0259992
*CONN
*I *883:Y O *D BUFX2
*I *884:C I *L 0
*I *885:C I *L 0
*I *886:A I *L 0
*I *887:C I *L 0
*I *888:C I *L 0
*CAP
1 882_1 0.0187704
2 882_2 0.0037584
3 882_3 0.0001008
4 882_4 0.0011376
5 882_5 0.0002016
6 882_6 0.0014976
7 882_7 0.000108
8 882_8 0.0004248
*RES
1 *883:Y 882_1 88.5036
2 882_1 *884:C 0
3 882_1 882_2 17.65
4 882_2 882_3 0.514286
5 882_3 *885:C 0
6 882_2 882_4 4.27857
7 882_4 882_5 1.02857
8 882_5 *886:A 0
9 882_4 882_6 7.58214
10 882_6 882_7 0.375
11 882_7 *887:C 0
12 882_6 882_8 1.63929
13 882_8 *888:C 0
*END
*D_NET *889 0.0231984
*CONN
*I *890:Y O *D BUFX2
*I *891:C I *L 0
*I *892:C I *L 0
*I *893:C I *L 0
*I *894:C I *L 0
*I *895:C I *L 0
*CAP
1 889_1 0.0009
2 889_2 0.0014616
3 889_3 0.0002088
4 889_4 0.000936
5 889_5 3.6e-05
6 889_6 0.000432
7 889_7 3.6e-05
8 889_8 0.000216
9 889_9 0.018972
*RES
1 *890:Y 889_1 3.53571
2 889_1 889_2 7.45714
3 889_2 889_3 0.889286
4 889_3 *891:C 0
5 889_2 889_4 4.48214
6 889_4 889_5 0.125
7 889_5 *892:C 0
8 889_5 889_6 1.5
9 889_6 889_7 0.125
10 889_7 *893:C 0
11 889_7 889_8 0.75
12 889_8 *894:C 0
13 889_1 889_9 92.7357
14 889_9 *895:C 0
*END
*D_NET *896 0.0069048
*CONN
*I *897:Y O *D BUFX2
*I *898:C I *L 0
*I *899:A I *L 0
*I *900:B I *L 0
*I *901:C I *L 0
*I *902:C I *L 0
*CAP
1 896_1 0.0022392
2 896_2 0.0011664
3 896_3 0.0001008
4 896_4 0.000432
5 896_5 0.0001008
6 896_6 0.0003528
7 896_7 0.001656
8 896_8 0.0008568
*RES
1 *897:Y 896_1 8.43214
2 896_1 896_2 5.775
3 896_2 896_3 0.514286
4 896_3 *898:C 0
5 896_2 896_4 1.5
6 896_4 896_5 0.514286
7 896_5 *899:A 0
8 896_4 896_6 1.38929
9 896_6 *900:B 0
10 896_1 896_7 7.55714
11 896_7 *901:C 0
12 896_7 896_8 4.37143
13 896_8 *902:C 0
*END
*D_NET *903 0.0055296
*CONN
*I *904:Y O *D BUFX2
*I *905:A I *L 0
*I *906:C I *L 0
*I *907:C I *L 0
*I *908:C I *L 0
*I *909:C I *L 0
*CAP
1 903_1 0.000324
2 903_2 3.6e-05
3 903_3 0.000612
4 903_4 0.0001584
5 903_5 0.0002016
6 903_6 0.0007488
7 903_7 0.0025632
8 903_8 0.0008856
*RES
1 *904:Y 903_1 1.125
2 903_1 903_2 0.125
3 903_2 *905:A 0
4 903_2 903_3 2.125
5 903_3 903_4 0.632143
6 903_4 903_5 1.02857
7 903_5 *906:C 0
8 903_4 903_6 3.175
9 903_6 *907:C 0
10 903_3 903_7 12.4321
11 903_7 *908:C 0
12 903_7 903_8 3.40357
13 903_8 *909:C 0
*END
*D_NET *910 0.0065304
*CONN
*I *911:Y O *D BUFX2
*I *912:A I *L 0
*I *913:A I *L 0
*I *914:A I *L 0
*I *915:A I *L 0
*I *916:A I *L 0
*CAP
1 910_1 0.00018
2 910_2 0.000108
3 910_3 5.04e-05
4 910_4 0.0008064
5 910_5 0.0024192
6 910_6 0.0002016
7 910_7 3.6e-05
8 910_8 0.0008136
9 910_9 0.0019152
*RES
1 *911:Y 910_1 0.625
2 910_1 910_2 0.375
3 910_2 *912:A 0
4 910_1 910_3 0.257143
5 910_3 910_4 3.29286
6 910_4 *913:A 0
7 910_3 910_5 11.3571
8 910_5 910_6 1.02857
9 910_6 *914:A 0
10 910_5 910_7 0.125
11 910_7 910_8 3.56429
12 910_8 *915:A 0
13 910_7 910_9 7.71786
14 910_9 *916:A 0
*END
*D_NET *917 0.005976
*CONN
*I *918:Y O *D BUFX2
*I *919:A I *L 0
*I *920:A I *L 0
*I *921:A I *L 0
*I *922:A I *L 0
*I *923:B I *L 0
*CAP
1 917_1 0.0010872
2 917_2 0.0012888
3 917_3 0.0021528
4 917_4 3.6e-05
5 917_5 0.000252
6 917_6 0.0004608
7 917_7 0.0006984
*RES
1 *918:Y 917_1 4.43214
2 917_1 917_2 5.87143
3 917_2 *919:A 0
4 917_2 917_3 10.1036
5 917_3 917_4 0.125
6 917_4 *920:A 0
7 917_4 917_5 0.875
8 917_5 *921:A 0
9 917_1 917_6 2.175
10 917_6 *922:A 0
11 917_1 917_7 2.91786
12 917_7 *923:B 0
*END
*D_NET *924 0.008352
*CONN
*I *925:Y O *D BUFX2
*I *926:A I *L 0
*I *927:A I *L 0
*I *928:A I *L 0
*I *929:A I *L 0
*I *930:A I *L 0
*CAP
1 924_1 0.0025992
2 924_2 0.0005112
3 924_3 0.0023976
4 924_4 0.00018
5 924_5 0.0007416
6 924_6 0.0008928
7 924_7 0.000216
8 924_8 0.00018
9 924_9 0.0006336
*RES
1 *925:Y 924_1 10.9143
2 924_1 924_2 2.43214
3 924_2 *926:A 0
4 924_1 924_3 8.65357
5 924_3 924_4 0.625
6 924_4 924_5 3.31429
7 924_5 *927:A 0
8 924_4 924_6 4.49643
9 924_6 924_7 0.75
10 924_7 *928:A 0
11 924_6 924_8 0.625
12 924_8 *929:A 0
13 924_3 924_9 2.93929
14 924_9 *930:A 0
*END
*D_NET *931 0.0084816
*CONN
*I *932:Y O *D BUFX2
*I *933:A I *L 0
*I *934:A I *L 0
*I *935:A I *L 0
*I *936:A I *L 0
*I *937:C I *L 0
*CAP
1 931_1 0.0016416
2 931_2 0.0003024
3 931_3 0.002232
4 931_4 0.0009576
5 931_5 0.0001008
6 931_6 0.00054
7 931_7 0.0017064
8 931_8 0.0003024
9 931_9 0.0006984
*RES
1 *932:Y 931_1 7.26071
2 931_1 931_2 1.54286
3 931_2 *933:A 0
4 931_1 931_3 7.75
5 931_3 931_4 4.88571
6 931_4 931_5 0.514286
7 931_5 *934:A 0
8 931_4 931_6 1.875
9 931_6 *935:A 0
10 931_3 931_7 6.00714
11 931_7 931_8 1.54286
12 931_8 *936:A 0
13 931_7 931_9 2.91786
14 931_9 *937:C 0
*END
*D_NET *938 0.016308
*CONN
*I *939:Y O *D BUFX2
*I *940:B I *L 0
*I *941:B I *L 0
*I *942:B I *L 0
*I *943:C I *L 0
*I *944:C I *L 0
*CAP
1 938_1 0.0007416
2 938_2 0.000792
3 938_3 0.0003528
4 938_4 0.000792
5 938_5 0.000504
6 938_6 0.00072
7 938_7 0.007956
8 938_8 0.0008568
9 938_9 0.0035928
*RES
1 *939:Y 938_1 3.31429
2 938_1 938_2 2.75
3 938_2 938_3 1.8
4 938_3 *940:B 0
5 938_2 938_4 2.75
6 938_4 938_5 2.57143
7 938_5 *941:B 0
8 938_4 938_6 2.91071
9 938_6 *942:B 0
10 938_1 938_7 30.5
11 938_7 938_8 3.55
12 938_8 *943:C 0
13 938_7 938_9 17.5679
14 938_9 *944:C 0
*END
*D_NET *945 0.004572
*CONN
*I *946:Y O *D BUFX2
*I *947:B I *L 0
*I *948:B I *L 0
*I *949:B I *L 0
*I *950:B I *L 0
*I *951:B I *L 0
*CAP
1 945_1 0.0005904
2 945_2 0.000288
3 945_3 0.0005616
4 945_4 0.0004104
5 945_5 0.000216
6 945_6 0.0021096
7 945_7 0.000108
8 945_8 0.000288
*RES
1 *946:Y 945_1 2.95357
2 945_1 945_2 1
3 945_2 *947:B 0
4 945_1 945_3 2.27857
5 945_3 *948:B 0
6 945_1 945_4 1.91786
7 945_4 945_5 0.75
8 945_5 *949:B 0
9 945_4 945_6 9.70714
10 945_6 945_7 0.375
11 945_7 *950:B 0
12 945_6 945_8 1
13 945_8 *951:B 0
*END
*D_NET *952 0.0051336
*CONN
*I *953:Y O *D _1129
*I *954:A I *L 0
*I *955:A I *L 0
*I *956:A I *L 0
*I *957:A I *L 0
*I *958:A I *L 0
*CAP
1 952_1 0.0004608
2 952_2 0.000216
3 952_3 0.000252
4 952_4 0.000792
5 952_5 0.0003024
6 952_6 0.000612
7 952_7 0.0018
8 952_8 0.00036
9 952_9 0.0003384
*RES
1 *953:Y 952_1 2.175
2 952_1 952_2 0.75
3 952_2 952_3 1.28571
4 952_3 *954:A 0
5 952_2 952_4 2.75
6 952_4 952_5 1.54286
7 952_5 *955:A 0
8 952_4 952_6 2.53571
9 952_6 *956:A 0
10 952_1 952_7 6.25
11 952_7 952_8 1.66071
12 952_8 *957:A 0
13 952_7 952_9 1.66786
14 952_9 *958:A 0
*END
*D_NET *959 0.0087696
*CONN
*I *960:Y O *D BUFX2
*I *961:A I *L 0
*I *962:D I *L 0
*I *963:D I *L 0
*I *964:D I *L 0
*I *965:D I *L 0
*CAP
1 959_1 0.0002016
2 959_2 0.000972
3 959_3 0.0004464
4 959_4 0.0034272
5 959_5 0.00018
6 959_6 0.000576
7 959_7 0.0021024
8 959_8 0.000144
9 959_9 0.00072
*RES
1 *960:Y 959_1 1.02857
2 959_1 959_2 4.60714
3 959_2 959_3 1.71429
4 959_3 *961:A 0
5 959_2 959_4 16.2536
6 959_4 959_5 0.625
7 959_5 *962:D 0
8 959_4 959_6 2
9 959_6 *963:D 0
10 959_1 959_7 10.0107
11 959_7 959_8 0.5
12 959_8 *964:D 0
13 959_7 959_9 2.82857
14 959_9 *965:D 0
*END
*D_NET *966 0.0092592
*CONN
*I *967:Y O *D _906
*I *968:B I *L 0
*I *969:B I *L 0
*I *970:B I *L 0
*I *971:A I *L 0
*I *972:B I *L 0
*CAP
1 966_1 0.0038664
2 966_2 0.00054
3 966_3 0.0003456
4 966_4 0.0003528
5 966_5 0.000252
6 966_6 0.001476
7 966_7 0.000432
8 966_8 0.0017928
9 966_9 0.0002016
*RES
1 *967:Y 966_1 16.875
2 966_1 966_2 1.875
3 966_2 966_3 1.52857
4 966_3 *968:B 0
5 966_2 966_4 1.8
6 966_4 966_5 1.28571
7 966_5 *969:B 0
8 966_4 966_6 5.125
9 966_6 966_7 1.91071
10 966_7 *970:B 0
11 966_6 966_8 8.85357
12 966_8 *971:A 0
13 966_1 966_9 1.02857
14 966_9 *972:B 0
*END
*D_NET *973 0.004896
*CONN
*I *974:Y O *D _1028
*I *975:B I *L 0
*I *976:A I *L 0
*I *977:B I *L 0
*I *978:B I *L 0
*I *979:B I *L 0
*CAP
1 973_1 0.0004392
2 973_2 0.0008856
3 973_3 0.0001008
4 973_4 0.00018
5 973_5 0.0008064
6 973_6 0.0001008
7 973_7 0.001548
8 973_8 0.0008352
*RES
1 *974:Y 973_1 1.77143
2 973_1 *975:B 0
3 973_1 973_2 4.225
4 973_2 973_3 0.514286
5 973_3 *976:A 0
6 973_2 973_4 0.625
7 973_4 973_5 2.88214
8 973_5 973_6 0.514286
9 973_6 *977:B 0
10 973_5 973_7 7.42857
11 973_7 *978:B 0
12 973_4 973_8 3.96786
13 973_8 *979:B 0
*END
*D_NET *980 0.0079704
*CONN
*I *981:Y O *D _1029
*I *982:A I *L 0
*I *983:B I *L 0
*I *984:A I *L 0
*I *985:B I *L 0
*I *986:C I *L 0
*CAP
1 980_1 0.0004176
2 980_2 0.001368
3 980_3 0.0002016
4 980_4 0.000252
5 980_5 0.0002016
6 980_6 0.000216
7 980_7 0.0012456
8 980_8 0.002592
9 980_9 0.001476
*RES
1 *981:Y 980_1 1.77857
2 980_1 980_2 4.75
3 980_2 980_3 1.02857
4 980_3 *982:A 0
5 980_2 980_4 0.875
6 980_4 980_5 1.02857
7 980_5 *983:B 0
8 980_4 980_6 0.75
9 980_6 980_7 5.88571
10 980_7 *984:A 0
11 980_6 980_8 12.2857
12 980_8 *985:B 0
13 980_1 980_9 6.76786
14 980_9 *986:C 0
*END
*D_NET *987 0.007128
*CONN
*I *988:Y O *D _1030
*I *989:B I *L 0
*I *990:B I *L 0
*I *991:B I *L 0
*I *992:B I *L 0
*I *993:A I *L 0
*CAP
1 987_1 0.000216
2 987_2 0.000324
3 987_3 0.0036648
4 987_4 0.000756
5 987_5 0.000504
6 987_6 0.0001512
7 987_7 0.0006984
8 987_8 0.0001008
9 987_9 0.0007128
*RES
1 *988:Y 987_1 0.75
2 987_1 987_2 1.125
3 987_2 *989:B 0
4 987_1 987_3 16.175
5 987_3 987_4 3.85714
6 987_4 *990:B 0
7 987_3 987_5 1.75
8 987_5 987_6 0.771429
9 987_6 *991:B 0
10 987_5 987_7 3.32857
11 987_7 987_8 0.514286
12 987_8 *992:B 0
13 987_7 987_9 2.63929
14 987_9 *993:A 0
*END
*D_NET *994 0.0055224
*CONN
*I *995:Q O *D _1521
*I *996:A I *L 0
*I *997:A I *L 0
*I *998:B I *L 0
*I *999:A I *L 0
*I *1000:A I *L 0
*CAP
1 994_1 0.0001512
2 994_2 0.000612
3 994_3 0.000468
4 994_4 0.000864
5 994_5 3.6e-05
6 994_6 0.0004464
7 994_7 0.0005976
8 994_8 0.0007848
9 994_9 0.0015624
*RES
1 *995:Q 994_1 0.771429
2 994_1 994_2 2.53571
3 994_2 *996:A 0
4 994_1 994_3 1.625
5 994_3 994_4 3.41071
6 994_4 994_5 0.125
7 994_5 *997:A 0
8 994_5 994_6 2.04286
9 994_6 994_7 2.81429
10 994_7 *998:B 0
11 994_6 994_8 3.3
12 994_8 *999:A 0
13 994_3 994_9 7.97143
14 994_9 *1000:A 0
*END
*D_NET *1001 0.004284
*CONN
*I *1002:Y O *D _1106
*I *1003:B I *L 0
*I *1004:A I *L 0
*I *1005:B I *L 0
*I *1006:C I *L 0
*I *1007:A I *L 0
*CAP
1 1001_1 0.0001008
2 1001_2 0.0004032
3 1001_3 0.0001008
4 1001_4 0.0007128
5 1001_5 0.000396
6 1001_6 0.0006552
7 1001_7 0.000648
8 1001_8 0.0002088
9 1001_9 0.0010584
*RES
1 *1002:Y 1001_1 0.514286
2 1001_1 1001_2 2.05714
3 1001_2 1001_3 0.514286
4 1001_3 *1003:B 0
5 1001_2 1001_4 2.63929
6 1001_4 *1004:A 0
7 1001_1 1001_5 1.78571
8 1001_5 1001_6 3.34286
9 1001_6 *1005:B 0
10 1001_5 1001_7 2.25
11 1001_7 1001_8 0.889286
12 1001_8 *1006:C 0
13 1001_7 1001_9 5.4
14 1001_9 *1007:A 0
*END
*D_NET *1008 0.0059256
*CONN
*I *1009:Q O *D _1504
*I *1010:A I *L 0
*I *1011:A I *L 0
*I *1012:A I *L 0
*I *1013:B I *L 0
*I *1014:A I *L 0
*CAP
1 1008_1 0.00018
2 1008_2 0.000504
3 1008_3 0.0006408
4 1008_4 0.00054
5 1008_5 0.000252
6 1008_6 0.0014184
7 1008_7 0.0009288
8 1008_8 0.000252
9 1008_9 0.0012096
*RES
1 *1009:Q 1008_1 0.625
2 1008_1 1008_2 2.57143
3 1008_2 *1010:A 0
4 1008_1 1008_3 3.21071
5 1008_3 1008_4 1.875
6 1008_4 1008_5 1.28571
7 1008_5 *1011:A 0
8 1008_4 1008_6 6.65
9 1008_6 *1012:A 0
10 1008_3 1008_7 3.8
11 1008_7 1008_8 1.28571
12 1008_8 *1013:B 0
13 1008_7 1008_9 5.18571
14 1008_9 *1014:A 0
*END
*D_NET *1015 0.0050616
*CONN
*I *1016:Y O *D _1109
*I *1017:A I *L 0
*I *1018:A I *L 0
*I *1019:C I *L 0
*I *1020:B I *L 0
*I *1021:A I *L 0
*CAP
1 1015_1 0.0005328
2 1015_2 0.0003024
3 1015_3 0.000936
4 1015_4 0.0003024
5 1015_5 0.00018
6 1015_6 0.0007128
7 1015_7 0.0018072
8 1015_8 0.000108
9 1015_9 0.00018
*RES
1 *1016:Y 1015_1 2.425
2 1015_1 1015_2 1.54286
3 1015_2 *1017:A 0
4 1015_1 1015_3 3.25
5 1015_3 1015_4 1.54286
6 1015_4 *1018:A 0
7 1015_3 1015_5 0.625
8 1015_5 1015_6 3.21429
9 1015_6 *1019:C 0
10 1015_5 1015_7 6.93214
11 1015_7 1015_8 0.375
12 1015_8 *1020:B 0
13 1015_7 1015_9 0.625
14 1015_9 *1021:A 0
*END
*D_NET *1022 0.0048384
*CONN
*I *1023:Q O *D _1502
*I *1024:A I *L 0
*I *1025:B I *L 0
*I *1026:A I *L 0
*I *1027:A I *L 0
*I *1028:A I *L 0
*CAP
1 1022_1 0.0005544
2 1022_2 0.000684
3 1022_3 0.0006336
4 1022_4 0.000504
5 1022_5 0.0001008
6 1022_6 0.0005688
7 1022_7 0.0004608
8 1022_8 0.001152
9 1022_9 0.00018
*RES
1 *1023:Q 1022_1 2.82857
2 1022_1 1022_2 2.78571
3 1022_2 1022_3 2.52857
4 1022_3 *1024:A 0
5 1022_2 1022_4 2.57143
6 1022_4 1022_5 0.514286
7 1022_5 *1025:B 0
8 1022_4 1022_6 2.05714
9 1022_6 1022_7 1.76429
10 1022_7 *1026:A 0
11 1022_6 1022_8 5.23214
12 1022_8 *1027:A 0
13 1022_1 1022_9 0.625
14 1022_9 *1028:A 0
*END
*D_NET *1029 0.0030744
*CONN
*I *1030:Q O *D _1500
*I *1031:A I *L 0
*I *1032:A I *L 0
*I *1033:A I *L 0
*I *1034:A I *L 0
*I *1035:A I *L 0
*CAP
1 1029_1 3.6e-05
2 1029_2 0.0008712
3 1029_3 0.00018
4 1029_4 3.6e-05
5 1029_5 0.0001008
6 1029_6 0.000756
7 1029_7 0.000108
8 1029_8 3.6e-05
9 1029_9 0.0009504
*RES
1 *1030:Q 1029_1 0.125
2 1029_1 1029_2 3.27143
3 1029_2 1029_3 0.625
4 1029_3 *1031:A 0
5 1029_2 1029_4 0.125
6 1029_4 1029_5 0.514286
7 1029_5 *1032:A 0
8 1029_4 1029_6 3.85714
9 1029_6 *1033:A 0
10 1029_1 1029_7 0.375
11 1029_7 1029_8 0.125
12 1029_8 *1034:A 0
13 1029_8 1029_9 3.79286
14 1029_9 *1035:A 0
*END
*D_NET *1036 0.0049104
*CONN
*I *1037:Q O *D _1496
*I *1038:A I *L 0
*I *1039:A I *L 0
*I *1040:B I *L 0
*I *1041:A I *L 0
*I *1042:A I *L 0
*CAP
1 1036_1 0.0004752
2 1036_2 0.0019296
3 1036_3 0.0006696
4 1036_4 5.04e-05
5 1036_5 0.0005616
6 1036_6 0.0003816
7 1036_7 0.0008424
*RES
1 *1037:Q 1036_1 1.89643
2 1036_1 *1038:A 0
3 1036_1 1036_2 9.49286
4 1036_2 1036_3 3.06429
5 1036_3 *1039:A 0
6 1036_2 1036_4 0.257143
7 1036_4 1036_5 2.68929
8 1036_5 *1040:B 0
9 1036_4 1036_6 1.65357
10 1036_6 *1041:A 0
11 1036_1 1036_7 3.41786
12 1036_7 *1042:A 0
*END
*D_NET *1043 0.0084744
*CONN
*I *1044:Q O *D _1510
*I *1045:A I *L 0
*I *1046:B I *L 0
*I *1047:A I *L 0
*I *1048:A I *L 0
*I *1049:A I *L 0
*CAP
1 1043_1 0.0008856
2 1043_2 0.0008064
3 1043_3 0.0007416
4 1043_4 0.0018432
5 1043_5 0.0009864
6 1043_6 0.001008
7 1043_7 0.0007632
8 1043_8 0.000396
9 1043_9 0.001044
*RES
1 *1044:Q 1043_1 3.81429
2 1043_1 1043_2 3.70357
3 1043_2 1043_3 3.31429
4 1043_3 *1045:A 0
5 1043_2 1043_4 9.11071
6 1043_4 1043_5 4.32857
7 1043_5 *1046:B 0
8 1043_4 1043_6 3.5
9 1043_6 1043_7 2.89643
10 1043_7 *1047:A 0
11 1043_6 1043_8 1.78571
12 1043_8 *1048:A 0
13 1043_1 1043_9 4.44643
14 1043_9 *1049:A 0
*END
*D_NET *1050 0.0042912
*CONN
*I *1051:Q O *D _1509
*I *1052:A I *L 0
*I *1053:A I *L 0
*I *1054:A I *L 0
*I *1055:A I *L 0
*I *1056:B I *L 0
*CAP
1 1050_1 0.000216
2 1050_2 0.00126
3 1050_3 0.0006336
4 1050_4 0.0002016
5 1050_5 0.00018
6 1050_6 0.0013608
7 1050_7 0.0004392
*RES
1 *1051:Q 1050_1 0.75
2 1050_1 *1052:A 0
3 1050_1 1050_2 6.42857
4 1050_2 1050_3 2.52857
5 1050_3 *1053:A 0
6 1050_2 1050_4 1.02857
7 1050_4 1050_5 0.625
8 1050_5 *1054:A 0
9 1050_4 1050_6 6.94286
10 1050_6 *1055:A 0
11 1050_6 1050_7 1.77143
12 1050_7 *1056:B 0
*END
*D_NET *1057 0.0057744
*CONN
*I *1058:Q O *D _1501
*I *1059:A I *L 0
*I *1060:A I *L 0
*I *1061:A I *L 0
*I *1062:A I *L 0
*I *1063:A I *L 0
*CAP
1 1057_1 0.0010872
2 1057_2 0.0005544
3 1057_3 0.0007416
4 1057_4 0.0011088
5 1057_5 0.0003672
6 1057_6 0.0010224
7 1057_7 0.0006768
8 1057_8 0.000216
*RES
1 *1058:Q 1057_1 4.02143
2 1057_1 1057_2 2.82857
3 1057_2 *1059:A 0
4 1057_2 1057_3 3.06786
5 1057_3 *1060:A 0
6 1057_1 1057_4 5.65714
7 1057_4 1057_5 1.52143
8 1057_5 *1061:A 0
9 1057_4 1057_6 4.45357
10 1057_6 1057_7 2.51429
11 1057_7 *1062:A 0
12 1057_6 1057_8 0.75
13 1057_8 *1063:A 0
*END
*D_NET *1064 0.0045864
*CONN
*I *1065:Y O *D _1145
*I *1066:A I *L 0
*I *1067:A I *L 0
*I *1068:B I *L 0
*I *1069:A I *L 0
*I *1070:C I *L 0
*CAP
1 1064_1 0.00036
2 1064_2 0.0007488
3 1064_3 0.00108
4 1064_4 0.000468
5 1064_5 0.0001512
6 1064_6 0.000684
7 1064_7 0.0002016
8 1064_8 0.0004896
9 1064_9 0.0004032
*RES
1 *1065:Y 1064_1 1.66071
2 1064_1 1064_2 3.25714
3 1064_2 *1066:A 0
4 1064_1 1064_3 3.75
5 1064_3 1064_4 1.625
6 1064_4 1064_5 0.771429
7 1064_5 *1067:A 0
8 1064_4 1064_6 2.375
9 1064_6 1064_7 1.02857
10 1064_7 *1068:B 0
11 1064_6 1064_8 2.02857
12 1064_8 *1069:A 0
13 1064_3 1064_9 2.05714
14 1064_9 *1070:C 0
*END
*D_NET *1071 0.0050328
*CONN
*I *1072:Y O *D _1146
*I *1073:A I *L 0
*I *1074:B I *L 0
*I *1075:C I *L 0
*I *1076:B I *L 0
*I *1077:A I *L 0
*CAP
1 1071_1 0.0018144
2 1071_2 0.0005544
3 1071_3 0.0003024
4 1071_4 0.0013032
5 1071_5 0.0001512
6 1071_6 0.0006552
7 1071_7 3.6e-05
8 1071_8 0.000216
*RES
1 *1072:Y 1071_1 6.79286
2 1071_1 1071_2 2.00714
3 1071_2 1071_3 1.54286
4 1071_3 *1073:A 0
5 1071_2 1071_4 4.77143
6 1071_4 1071_5 0.771429
7 1071_5 *1074:B 0
8 1071_4 1071_6 2.52143
9 1071_6 *1075:C 0
10 1071_1 1071_7 0.125
11 1071_7 *1076:B 0
12 1071_7 1071_8 0.75
13 1071_8 *1077:A 0
*END
*D_NET *1078 0.0039024
*CONN
*I *1079:Y O *D _1216
*I *1080:B I *L 0
*I *1081:B I *L 0
*I *1082:C I *L 0
*I *1083:A I *L 0
*I *1084:B I *L 0
*CAP
1 1078_1 0.0007416
2 1078_2 0.0002016
3 1078_3 0.000216
4 1078_4 0.000432
5 1078_5 0.0002016
6 1078_6 0.000396
7 1078_7 0.0005256
8 1078_8 0.0007056
9 1078_9 0.0004824
*RES
1 *1079:Y 1078_1 2.90357
2 1078_1 1078_2 1.02857
3 1078_2 *1080:B 0
4 1078_1 1078_3 0.75
5 1078_3 1078_4 1.5
6 1078_4 1078_5 1.02857
7 1078_5 *1081:B 0
8 1078_4 1078_6 1.375
9 1078_6 1078_7 2.15357
10 1078_7 *1082:C 0
11 1078_6 1078_8 3.6
12 1078_8 *1083:A 0
13 1078_3 1078_9 2.16786
14 1078_9 *1084:B 0
*END
*D_NET *1085 0.0039096
*CONN
*I *1086:Y O *D _1286
*I *1087:B I *L 0
*I *1088:A I *L 0
*I *1089:A I *L 0
*I *1090:A I *L 0
*I *1091:C I *L 0
*CAP
1 1085_1 0.0002016
2 1085_2 0.0002016
3 1085_3 0.0002016
4 1085_4 0.0011376
5 1085_5 0.00054
6 1085_6 0.00036
7 1085_7 0.0002016
8 1085_8 0.0004608
9 1085_9 0.0006048
*RES
1 *1086:Y 1085_1 1.02857
2 1085_1 1085_2 1.02857
3 1085_2 1085_3 1.02857
4 1085_3 *1087:B 0
5 1085_2 1085_4 4.27857
6 1085_4 *1088:A 0
7 1085_1 1085_5 1.875
8 1085_5 1085_6 1.25
9 1085_6 1085_7 1.02857
10 1085_7 *1089:A 0
11 1085_6 1085_8 2.175
12 1085_8 *1090:A 0
13 1085_5 1085_9 3.08571
14 1085_9 *1091:C 0
*END
*D_NET *1092 0.010008
*CONN
*I *1093:Y O *D _1288
*I *1094:A I *L 0
*I *1095:B I *L 0
*I *1096:B I *L 0
*I *1097:B I *L 0
*I *1098:C I *L 0
*CAP
1 1092_1 0.0003024
2 1092_2 0.000612
3 1092_3 0.0042336
4 1092_4 0.0005472
5 1092_5 0.0006408
6 1092_6 0.0004464
7 1092_7 0.0019152
8 1092_8 0.0004464
9 1092_9 0.000864
*RES
1 *1093:Y 1092_1 1.54286
2 1092_1 1092_2 2.94643
3 1092_2 *1094:A 0
4 1092_1 1092_3 15.0286
5 1092_3 1092_4 2.55714
6 1092_4 *1095:B 0
7 1092_3 1092_5 2.8
8 1092_5 1092_6 2.04286
9 1092_6 *1096:B 0
10 1092_5 1092_7 6.73214
11 1092_7 1092_8 2.04286
12 1092_8 *1097:B 0
13 1092_7 1092_9 3.82143
14 1092_9 *1098:C 0
*END
*D_NET *1099 0.0051048
*CONN
*I *1100:Y O *D _1395
*I *1101:A I *L 0
*I *1102:A I *L 0
*I *1103:B I *L 0
*I *1104:C I *L 0
*I *1105:B I *L 0
*CAP
1 1099_1 0.0009
2 1099_2 0.0003024
3 1099_3 0.0003024
4 1099_4 3.6e-05
5 1099_5 0.00072
6 1099_6 0.0005184
7 1099_7 0.0004608
8 1099_8 0.0016128
9 1099_9 0.000252
*RES
1 *1100:Y 1099_1 3.125
2 1099_1 1099_2 1.54286
3 1099_2 1099_3 1.54286
4 1099_3 *1101:A 0
5 1099_2 1099_4 0.125
6 1099_4 1099_5 2.5
7 1099_5 1099_6 2.29286
8 1099_6 *1102:A 0
9 1099_5 1099_7 2.175
10 1099_7 *1103:B 0
11 1099_4 1099_8 6.99643
12 1099_8 *1104:C 0
13 1099_1 1099_9 0.875
14 1099_9 *1105:B 0
*END
*D_NET *1106 0.0029664
*CONN
*I *1107:Y O *D _1410
*I *1108:A I *L 0
*I *1109:A I *L 0
*I *1110:B I *L 0
*I *1111:B I *L 0
*I *1112:B I *L 0
*CAP
1 1106_1 0.0004032
2 1106_2 0.0001008
3 1106_3 0.0005112
4 1106_4 0.0001008
5 1106_5 0.000504
6 1106_6 0.0003528
7 1106_7 0.000612
8 1106_8 0.0003816
*RES
1 *1107:Y 1106_1 1.64643
2 1106_1 1106_2 0.514286
3 1106_2 *1108:A 0
4 1106_1 1106_3 2.43214
5 1106_3 1106_4 0.514286
6 1106_4 *1109:A 0
7 1106_3 1106_5 1.75
8 1106_5 1106_6 1.38929
9 1106_6 *1110:B 0
10 1106_6 1106_7 2.125
11 1106_7 *1111:B 0
12 1106_5 1106_8 1.65357
13 1106_8 *1112:B 0
*END
*D_NET *1113 0.00648
*CONN
*I *1114:Y O *D _1549
*I *1115:B I *L 0
*I *1116:B I *L 0
*I *1117:B I *L 0
*I *1118:B I *L 0
*I *1119:C I *L 0
*CAP
1 1113_1 0.0017496
2 1113_2 0.0011232
3 1113_3 0.0001008
4 1113_4 0.00126
5 1113_5 0.0006048
6 1113_6 0.0004752
7 1113_7 0.0011664
*RES
1 *1114:Y 1113_1 6.89643
2 1113_1 1113_2 5.37857
3 1113_2 *1115:B 0
4 1113_1 1113_3 0.514286
5 1113_3 *1116:B 0
6 1113_1 1113_4 5.60714
7 1113_4 1113_5 3.08571
8 1113_5 *1117:B 0
9 1113_5 1113_6 1.89643
10 1113_6 *1118:B 0
11 1113_4 1113_7 5.36429
12 1113_7 *1119:C 0
*END
*D_NET *1120 0.0054216
*CONN
*I *1121:Q O *D _1628
*I *1122:A I *L 0
*I *1123:A I *L 0
*I *1124:A I *L 0
*I *1125:B I *L 0
*I *1126:A I *L 0
*CAP
1 1120_1 3.6e-05
2 1120_2 0.0004608
3 1120_3 0.000792
4 1120_4 0.000792
5 1120_5 0.000504
6 1120_6 3.6e-05
7 1120_7 0.001188
8 1120_8 0.0011808
9 1120_9 0.000432
*RES
1 *1121:Q 1120_1 0.125
2 1120_1 1120_2 2.175
3 1120_2 1120_3 2.75
4 1120_3 1120_4 3.57143
5 1120_4 *1122:A 0
6 1120_3 1120_5 2.16071
7 1120_5 1120_6 0.125
8 1120_6 *1123:A 0
9 1120_6 1120_7 5.35714
10 1120_7 *1124:A 0
11 1120_2 1120_8 5.08571
12 1120_8 *1125:B 0
13 1120_1 1120_9 1.5
14 1120_9 *1126:A 0
*END
*D_NET *1127 0.0049104
*CONN
*I *1128:Q O *D _1629
*I *1129:B I *L 0
*I *1130:B I *L 0
*I *1131:A I *L 0
*I *1132:B I *L 0
*I *1133:B I *L 0
*CAP
1 1127_1 0.000108
2 1127_2 0.0011376
3 1127_3 0.0003528
4 1127_4 0.0007056
5 1127_5 0.000504
6 1127_6 0.0011664
7 1127_7 0.000504
8 1127_8 0.000144
9 1127_9 0.000288
*RES
1 *1128:Q 1127_1 0.375
2 1127_1 1127_2 5.18214
3 1127_2 1127_3 1.8
4 1127_3 *1129:B 0
5 1127_2 1127_4 2.77857
6 1127_4 1127_5 2.57143
7 1127_5 *1130:B 0
8 1127_4 1127_6 4.54286
9 1127_6 1127_7 2.57143
10 1127_7 *1131:A 0
11 1127_6 1127_8 0.5
12 1127_8 *1132:B 0
13 1127_1 1127_9 1
14 1127_9 *1133:B 0
*END
*D_NET *1134 0.005796
*CONN
*I *1135:Q O *D _1999
*I *1136:A I *L 0
*I *1137:A I *L 0
*I *1138:A I *L 0
*I *1139:A I *L 0
*I *1140:A I *L 0
*CAP
1 1134_1 0.000648
2 1134_2 0.000108
3 1134_3 0.0003384
4 1134_4 0.0014112
5 1134_5 0.00018
6 1134_6 0.000504
7 1134_7 0.0012384
8 1134_8 0.0002016
9 1134_9 0.0011664
*RES
1 *1135:Q 1134_1 3.07143
2 1134_1 1134_2 0.375
3 1134_2 *1136:A 0
4 1134_1 1134_3 1.66786
5 1134_3 1134_4 5.96786
6 1134_4 1134_5 0.625
7 1134_5 *1137:A 0
8 1134_4 1134_6 2.57143
9 1134_6 *1138:A 0
10 1134_3 1134_7 4.38214
11 1134_7 1134_8 1.02857
12 1134_8 *1139:A 0
13 1134_7 1134_9 5.52857
14 1134_9 *1140:A 0
*END
*D_NET *1141 0.0046368
*CONN
*I *1142:Y O *D _1641
*I *1143:B I *L 0
*I *1144:B I *L 0
*I *1145:B I *L 0
*I *1146:B I *L 0
*I *1147:C I *L 0
*CAP
1 1141_1 0.000144
2 1141_2 0.000144
3 1141_3 0.0002376
4 1141_4 0.0008856
5 1141_5 0.001404
6 1141_6 0.0005544
7 1141_7 0.0005616
8 1141_8 0.0007056
*RES
1 *1142:Y 1141_1 0.5
2 1141_1 1141_2 0.5
3 1141_2 *1143:B 0
4 1141_2 1141_3 1.15357
5 1141_3 1141_4 3.40357
6 1141_4 *1144:B 0
7 1141_3 1141_5 4.875
8 1141_5 1141_6 2.82857
9 1141_6 *1145:B 0
10 1141_5 1141_7 2.27857
11 1141_7 *1146:B 0
12 1141_1 1141_8 3.6
13 1141_8 *1147:C 0
*END
*D_NET *1148 0.0096264
*CONN
*I *1149:Y O *D _1644
*I *1150:B I *L 0
*I *1151:A I *L 0
*I *1152:B I *L 0
*I *1153:A I *L 0
*I *1154:B I *L 0
*CAP
1 1148_1 0.0004752
2 1148_2 0.0005616
3 1148_3 0.000504
4 1148_4 0.0012312
5 1148_5 0.0039384
6 1148_6 0.000144
7 1148_7 0.0005544
8 1148_8 0.0004104
9 1148_9 0.0018072
*RES
1 *1149:Y 1148_1 1.89643
2 1148_1 1148_2 2.27857
3 1148_2 *1150:B 0
4 1148_1 1148_3 2.57143
5 1148_3 1148_4 5.34286
6 1148_4 *1151:A 0
7 1148_3 1148_5 15.4
8 1148_5 1148_6 0.5
9 1148_6 *1152:B 0
10 1148_5 1148_7 2.82857
11 1148_7 1148_8 1.91786
12 1148_8 *1153:A 0
13 1148_7 1148_9 6.93214
14 1148_9 *1154:B 0
*END
*D_NET *1155 0.0077472
*CONN
*I *1156:Y O *D _1645
*I *1157:B I *L 0
*I *1158:B I *L 0
*I *1159:B I *L 0
*I *1160:B I *L 0
*I *1161:A I *L 0
*CAP
1 1155_1 0.0012456
2 1155_2 0.0006408
3 1155_3 0.000396
4 1155_4 0.0017208
5 1155_5 0.0002016
6 1155_6 0.000432
7 1155_7 0.0008208
8 1155_8 0.0022896
*RES
1 *1156:Y 1155_1 6.29643
2 1155_1 1155_2 2.38929
3 1155_2 *1157:B 0
4 1155_2 1155_3 1.375
5 1155_3 *1158:B 0
6 1155_1 1155_4 6.96071
7 1155_4 1155_5 1.02857
8 1155_5 *1159:B 0
9 1155_4 1155_6 1.5
10 1155_6 1155_7 3.425
11 1155_7 *1160:B 0
12 1155_6 1155_8 10.7429
13 1155_8 *1161:A 0
*END
*D_NET *1162 0.00828
*CONN
*I *1163:Y O *D _1651
*I *1164:A I *L 0
*I *1165:A I *L 0
*I *1166:B I *L 0
*I *1167:A I *L 0
*I *1168:B I *L 0
*CAP
1 1162_1 0.0013032
2 1162_2 0.00036
3 1162_3 0.0004104
4 1162_4 0.0011232
5 1162_5 0.0001008
6 1162_6 0.0011736
7 1162_7 3.6e-05
8 1162_8 0.0016056
9 1162_9 0.0021672
*RES
1 *1163:Y 1162_1 6.41429
2 1162_1 1162_2 1.66071
3 1162_2 *1164:A 0
4 1162_1 1162_3 1.50714
5 1162_3 1162_4 4.96786
6 1162_4 1162_5 0.514286
7 1162_5 *1165:A 0
8 1162_4 1162_6 5.63571
9 1162_6 1162_7 0.125
10 1162_7 *1166:B 0
11 1162_7 1162_8 6.31429
12 1162_8 *1167:A 0
13 1162_3 1162_9 9.825
14 1162_9 *1168:B 0
*END
*D_NET *1169 0.006552
*CONN
*I *1170:Y O *D _1655
*I *1171:B I *L 0
*I *1172:B I *L 0
*I *1173:A I *L 0
*I *1174:B I *L 0
*I *1175:C I *L 0
*CAP
1 1169_1 0.0008568
2 1169_2 0.000144
3 1169_3 0.0001512
4 1169_4 0.0005112
5 1169_5 0.0007848
6 1169_6 0.000216
7 1169_7 0.0001512
8 1169_8 0.0004032
9 1169_9 0.0033336
*RES
1 *1170:Y 1169_1 3.96071
2 1169_1 1169_2 0.5
3 1169_2 1169_3 0.771429
4 1169_3 *1171:B 0
5 1169_2 1169_4 2.02143
6 1169_4 *1172:B 0
7 1169_1 1169_5 3.71071
8 1169_5 1169_6 0.75
9 1169_6 1169_7 0.771429
10 1169_7 *1173:A 0
11 1169_6 1169_8 1.64643
12 1169_8 *1174:B 0
13 1169_5 1169_9 14.45
14 1169_9 *1175:C 0
*END
*D_NET *1176 0.0101664
*CONN
*I *1177:Y O *D _1662
*I *1178:A I *L 0
*I *1179:A I *L 0
*I *1180:A I *L 0
*I *1181:A I *L 0
*I *1182:A I *L 0
*CAP
1 1176_1 0.0001944
2 1176_2 0.0019872
3 1176_3 0.001116
4 1176_4 0.000252
5 1176_5 0.0019944
6 1176_6 0.0026712
7 1176_7 0.0005112
8 1176_8 0.00144
*RES
1 *1177:Y 1176_1 0.757143
2 1176_1 1176_2 9.28214
3 1176_2 *1178:A 0
4 1176_2 1176_3 5.10714
5 1176_3 *1179:A 0
6 1176_1 1176_4 1.28571
7 1176_4 1176_5 8.73214
8 1176_5 *1180:A 0
9 1176_4 1176_6 9.52143
10 1176_6 1176_7 2.43214
11 1176_7 *1181:A 0
12 1176_6 1176_8 7.05357
13 1176_8 *1182:A 0
*END
*D_NET *1183 0.013392
*CONN
*I *1184:Y O *D _1673
*I *1185:B I *L 0
*I *1186:A I *L 0
*I *1187:C I *L 0
*I *1188:B I *L 0
*I *1189:A I *L 0
*CAP
1 1183_1 0.0073512
2 1183_2 5.04e-05
3 1183_3 0.0003024
4 1183_4 0.0009864
5 1183_5 0.00018
6 1183_6 0.0004536
7 1183_7 0.0031608
8 1183_8 0.0001008
9 1183_9 0.0008064
*RES
1 *1184:Y 1183_1 27.825
2 1183_1 1183_2 0.257143
3 1183_2 1183_3 1.54286
4 1183_3 *1185:B 0
5 1183_2 1183_4 4.32857
6 1183_4 *1186:A 0
7 1183_1 1183_5 0.625
8 1183_5 1183_6 2.31429
9 1183_6 *1187:C 0
10 1183_5 1183_7 14.0143
11 1183_7 1183_8 0.514286
12 1183_8 *1188:B 0
13 1183_7 1183_9 4.11429
14 1183_9 *1189:A 0
*END
*D_NET *1190 0.0039312
*CONN
*I *1191:Q O *D _1989
*I *1192:B I *L 0
*I *1193:D I *L 0
*I *1194:A I *L 0
*I *1195:B I *L 0
*I *1196:A I *L 0
*CAP
1 1190_1 0.0005256
2 1190_2 0.0002016
3 1190_3 0.000612
4 1190_4 0.0001512
5 1190_5 0.00072
6 1190_6 0.0005832
7 1190_7 0.0004536
8 1190_8 7.2e-05
9 1190_9 0.000612
*RES
1 *1191:Q 1190_1 2.15357
2 1190_1 1190_2 1.02857
3 1190_2 *1192:B 0
4 1190_1 1190_3 2.53571
5 1190_3 1190_4 0.771429
6 1190_4 *1193:D 0
7 1190_3 1190_5 2.5
8 1190_5 1190_6 2.68214
9 1190_6 *1194:A 0
10 1190_5 1190_7 1.90357
11 1190_7 1190_8 0.25
12 1190_8 *1195:B 0
13 1190_7 1190_9 2.125
14 1190_9 *1196:A 0
*END
*D_NET *1197 0.0056592
*CONN
*I *1198:Q O *D _1993
*I *1199:A I *L 0
*I *1200:A I *L 0
*I *1201:B I *L 0
*I *1202:A I *L 0
*I *1203:A I *L 0
*CAP
1 1197_1 0.000504
2 1197_2 0.00018
3 1197_3 0.0002592
4 1197_4 0.0006192
5 1197_5 0.0008928
6 1197_6 0.0020088
7 1197_7 0.0011952
*RES
1 *1198:Q 1197_1 2.57143
2 1197_1 *1199:A 0
3 1197_1 1197_2 0.625
4 1197_2 1197_3 1.14643
5 1197_3 *1200:A 0
6 1197_3 1197_4 2.80714
7 1197_4 1197_5 3.675
8 1197_5 *1201:B 0
9 1197_4 1197_6 9.60357
10 1197_6 *1202:A 0
11 1197_2 1197_7 5.21786
12 1197_7 *1203:A 0
*END
*D_NET *1204 0.0056376
*CONN
*I *1205:Q O *D _1995
*I *1206:C I *L 0
*I *1207:A I *L 0
*I *1208:B I *L 0
*I *1209:A I *L 0
*I *1210:A I *L 0
*CAP
1 1204_1 0.0013392
2 1204_2 0.000396
3 1204_3 0.0004032
4 1204_4 0.000324
5 1204_5 0.0010512
6 1204_6 0.0004392
7 1204_7 0.001152
8 1204_8 0.0005328
*RES
1 *1205:Q 1204_1 6.12857
2 1204_1 1204_2 1.375
3 1204_2 1204_3 2.05714
4 1204_3 *1206:C 0
5 1204_2 1204_4 1.125
6 1204_4 1204_5 5.12857
7 1204_5 *1207:A 0
8 1204_5 1204_6 1.77143
9 1204_6 *1208:B 0
10 1204_4 1204_7 5.64286
11 1204_7 *1209:A 0
12 1204_1 1204_8 2.425
13 1204_8 *1210:A 0
*END
*D_NET *1211 0.008244
*CONN
*I *1212:Q O *D _1969
*I *1213:A I *L 0
*I *1214:A I *L 0
*I *1215:A I *L 0
*I *1216:A I *L 0
*I *1217:C I *L 0
*CAP
1 1211_1 0.000504
2 1211_2 0.0023184
3 1211_3 0.000648
4 1211_4 0.0002304
5 1211_5 0.0003024
6 1211_6 0.0014184
7 1211_7 0.0008496
8 1211_8 0.0008928
9 1211_9 0.00108
*RES
1 *1212:Q 1211_1 2.57143
2 1211_1 1211_2 9.36429
3 1211_2 1211_3 2.25
4 1211_3 1211_4 0.882143
5 1211_4 1211_5 1.54286
6 1211_5 *1213:A 0
7 1211_4 1211_6 6.81429
8 1211_6 *1214:A 0
9 1211_3 1211_7 3.77143
10 1211_7 *1215:A 0
11 1211_2 1211_8 3.675
12 1211_8 *1216:A 0
13 1211_1 1211_9 4.16071
14 1211_9 *1217:C 0
*END
*D_NET *1218 0.0099144
*CONN
*I *1219:Q O *D _1974
*I *1220:A I *L 0
*I *1221:B I *L 0
*I *1222:A I *L 0
*I *1223:A I *L 0
*I *1224:A I *L 0
*CAP
1 1218_1 0.0003312
2 1218_2 0.001116
3 1218_3 0.0001512
4 1218_4 0.0004392
5 1218_5 0.000252
6 1218_6 0.0011664
7 1218_7 0.0008568
8 1218_8 0.0022248
9 1218_9 0.0033768
*RES
1 *1219:Q 1218_1 1.39643
2 1218_1 1218_2 3.875
3 1218_2 1218_3 0.771429
4 1218_3 *1220:A 0
5 1218_2 1218_4 1.77143
6 1218_4 1218_5 1.28571
7 1218_5 *1221:B 0
8 1218_4 1218_6 4.95357
9 1218_6 1218_7 3.38571
10 1218_7 *1222:A 0
11 1218_6 1218_8 11.175
12 1218_8 *1223:A 0
13 1218_1 1218_9 16.8179
14 1218_9 *1224:A 0
*END
*D_NET *1225 0.007776
*CONN
*I *1226:Q O *D _1973
*I *1227:A I *L 0
*I *1228:C I *L 0
*I *1229:A I *L 0
*I *1230:C I *L 0
*I *1231:B I *L 0
*CAP
1 1225_1 0.0011088
2 1225_2 0.000828
3 1225_3 0.000288
4 1225_4 0.0022536
5 1225_5 0.0019584
6 1225_6 0.000576
7 1225_7 0.0003312
8 1225_8 0.000432
*RES
1 *1226:Q 1225_1 5.24643
2 1225_1 1225_2 3.28571
3 1225_2 *1227:A 0
4 1225_2 1225_3 1
5 1225_3 *1228:C 0
6 1225_1 1225_4 11.0286
7 1225_4 1225_5 9.34643
8 1225_5 *1229:A 0
9 1225_4 1225_6 2
10 1225_6 1225_7 1.39643
11 1225_7 *1230:C 0
12 1225_6 1225_8 1.5
13 1225_8 *1231:B 0
*END
*D_NET *1232 0.0076896
*CONN
*I *1233:Q O *D _1970
*I *1234:B I *L 0
*I *1235:B I *L 0
*I *1236:B I *L 0
*I *1237:A I *L 0
*I *1238:A I *L 0
*CAP
1 1232_1 0.0010944
2 1232_2 0.0017136
3 1232_3 3.6e-05
4 1232_4 0.0005112
5 1232_5 0.0006264
6 1232_6 0.000504
7 1232_7 0.003204
*RES
1 *1233:Q 1232_1 4.29286
2 1232_1 *1234:B 0
3 1232_1 1232_2 8.33214
4 1232_2 *1235:B 0
5 1232_2 1232_3 0.125
6 1232_3 1232_4 2.02143
7 1232_4 *1236:B 0
8 1232_3 1232_5 2.25714
9 1232_5 1232_6 2.57143
10 1232_6 *1237:A 0
11 1232_5 1232_7 14.9036
12 1232_7 *1238:A 0
*END
*D_NET *1239 0.006012
*CONN
*I *1240:Q O *D _1981
*I *1241:A I *L 0
*I *1242:B I *L 0
*I *1243:A I *L 0
*I *1244:A I *L 0
*I *1245:B I *L 0
*CAP
1 1239_1 0.000216
2 1239_2 0.000108
3 1239_3 0.0024552
4 1239_4 0.00072
5 1239_5 0.0002016
6 1239_6 0.000612
7 1239_7 0.0002016
8 1239_8 0.0007344
9 1239_9 0.0007632
*RES
1 *1240:Q 1239_1 0.75
2 1239_1 1239_2 0.375
3 1239_2 *1241:A 0
4 1239_1 1239_3 11.6464
5 1239_3 1239_4 2.5
6 1239_4 1239_5 1.02857
7 1239_5 *1242:B 0
8 1239_4 1239_6 2.125
9 1239_6 1239_7 1.02857
10 1239_7 *1243:A 0
11 1239_6 1239_8 3.45357
12 1239_8 *1244:A 0
13 1239_3 1239_9 3.71786
14 1239_9 *1245:B 0
*END
*D_NET *1246 0.0076032
*CONN
*I *1247:Y O *D _1788
*I *1248:B I *L 0
*I *1249:B I *L 0
*I *1250:B I *L 0
*I *1251:A I *L 0
*I *1252:C I *L 0
*CAP
1 1246_1 0.00198
2 1246_2 0.0003528
3 1246_3 0.000432
4 1246_4 0.0006552
5 1246_5 0.000648
6 1246_6 0.000144
7 1246_7 0.0003528
8 1246_8 0.0006408
9 1246_9 0.0023976
*RES
1 *1247:Y 1246_1 7.69643
2 1246_1 1246_2 1.8
3 1246_2 *1248:B 0
4 1246_1 1246_3 1.5
5 1246_3 1246_4 3.34286
6 1246_4 *1249:B 0
7 1246_3 1246_5 2.25
8 1246_5 1246_6 0.5
9 1246_6 1246_7 1.8
10 1246_7 *1250:B 0
11 1246_6 1246_8 2.8
12 1246_8 *1251:A 0
13 1246_5 1246_9 11.1179
14 1246_9 *1252:C 0
*END
*D_NET *1253 0.0055224
*CONN
*I *1254:Q O *D _1986
*I *1255:A I *L 0
*I *1256:A I *L 0
*I *1257:A I *L 0
*I *1258:B I *L 0
*I *1259:B I *L 0
*CAP
1 1253_1 0.0008352
2 1253_2 0.0006912
3 1253_3 0.000612
4 1253_4 5.04e-05
5 1253_5 0.00036
6 1253_6 0.0008208
7 1253_7 0.000972
8 1253_8 0.0011808
*RES
1 *1254:Q 1253_1 3.96786
2 1253_1 1253_2 3.46786
3 1253_2 *1255:A 0
4 1253_1 1253_3 2.125
5 1253_3 1253_4 0.257143
6 1253_4 1253_5 1.66071
7 1253_5 *1256:A 0
8 1253_5 1253_6 3.83571
9 1253_6 *1257:A 0
10 1253_4 1253_7 4.60714
11 1253_7 *1258:B 0
12 1253_3 1253_8 5.08571
13 1253_8 *1259:B 0
*END
*D_NET *1260 0.0054288
*CONN
*I *1261:Y O *D _1093
*I *1262:A I *L 0
*I *1263:A I *L 0
*I *1264:A I *L 0
*I *1265:A I *L 0
*CAP
1 1260_1 0.000324
2 1260_2 0.002808
3 1260_3 0.0001008
4 1260_4 0.001872
5 1260_5 0.000324
*RES
1 *1261:Y 1260_1 1.125
2 1260_1 *1262:A 0
3 1260_1 1260_2 11.0643
4 1260_2 1260_3 0.514286
5 1260_3 *1263:A 0
6 1260_2 1260_4 7.32143
7 1260_4 *1264:A 0
8 1260_4 1260_5 1.125
9 1260_5 *1265:A 0
*END
*D_NET *1266 0.015228
*CONN
*I *1267:Y O *D _1209
*I *1268:A I *L 0
*I *1269:A I *L 0
*I *1270:A I *L 0
*I *1271:A I *L 0
*CAP
1 1266_1 0.0003528
2 1266_2 0.0022104
3 1266_3 0.0038664
4 1266_4 0.001044
5 1266_5 0.0031104
6 1266_6 0.0037584
7 1266_7 0.0008856
*RES
1 *1267:Y 1266_1 1.8
2 1266_1 1266_2 11.0429
3 1266_2 1266_3 16.7929
4 1266_3 *1268:A 0
5 1266_2 1266_4 3.625
6 1266_4 1266_5 14.1679
7 1266_5 *1269:A 0
8 1266_4 1266_6 14.3643
9 1266_6 *1270:A 0
10 1266_1 1266_7 3.40357
11 1266_7 *1271:A 0
*END
*D_NET *1272 0.0073656
*CONN
*I *1273:Y O *D BUFX2
*I *1274:B I *L 0
*I *1275:A I *L 0
*I *1276:B I *L 0
*I *1277:B I *L 0
*CAP
1 1272_1 0.0013248
2 1272_2 0.0006768
3 1272_3 0.002448
4 1272_4 0.0003024
5 1272_5 0.000468
6 1272_6 0.0006984
7 1272_7 0.0014472
*RES
1 *1273:Y 1272_1 6.40714
2 1272_1 1272_2 2.925
3 1272_2 *1274:B 0
4 1272_1 1272_3 8.5
5 1272_3 1272_4 1.54286
6 1272_4 *1275:A 0
7 1272_3 1272_5 1.625
8 1272_5 1272_6 3.32857
9 1272_6 *1276:B 0
10 1272_5 1272_7 6.91429
11 1272_7 *1277:B 0
*END
*D_NET *1278 0.0060984
*CONN
*I *1279:Y O *D BUFX2
*I *1280:B I *L 0
*I *1281:B I *L 0
*I *1282:B I *L 0
*I *1283:A I *L 0
*CAP
1 1278_1 0.001944
2 1278_2 0.0013536
3 1278_3 0.0004032
4 1278_4 0.0009072
5 1278_5 0.0014904
*RES
1 *1279:Y 1278_1 9.21429
2 1278_1 *1280:B 0
3 1278_1 1278_2 6.26071
4 1278_2 1278_3 1.64643
5 1278_3 *1281:B 0
6 1278_2 1278_4 3.80714
7 1278_4 *1282:B 0
8 1278_1 1278_5 6.07857
9 1278_5 *1283:A 0
*END
*D_NET *1284 0.0066528
*CONN
*I *1285:Q O *D _1527
*I *1286:A I *L 0
*I *1287:A I *L 0
*I *1288:A I *L 0
*I *1289:A I *L 0
*CAP
1 1284_1 0.0009504
2 1284_2 0.0001008
3 1284_3 0.0002304
4 1284_4 0.0015984
5 1284_5 0.00054
6 1284_6 3.6e-05
7 1284_7 0.0031968
*RES
1 *1285:Q 1284_1 4.20357
2 1284_1 1284_2 0.514286
3 1284_2 *1286:A 0
4 1284_1 1284_3 0.882143
5 1284_3 1284_4 7.68571
6 1284_4 1284_5 1.875
7 1284_5 *1287:A 0
8 1284_4 1284_6 0.125
9 1284_6 *1288:A 0
10 1284_3 1284_7 14.9607
11 1284_7 *1289:A 0
*END
*D_NET *1290 0.0066528
*CONN
*I *1291:Y O *D BUFX2
*I *1292:C I *L 0
*I *1293:A I *L 0
*I *1294:A I *L 0
*I *1295:C I *L 0
*CAP
1 1290_1 0.0019224
2 1290_2 0.000828
3 1290_3 0.000252
4 1290_4 0.001044
5 1290_5 0.000252
6 1290_6 0.0010944
7 1290_7 0.00126
*RES
1 *1291:Y 1290_1 8.81071
2 1290_1 1290_2 2.875
3 1290_2 1290_3 1.28571
4 1290_3 *1292:C 0
5 1290_2 1290_4 3.625
6 1290_4 1290_5 1.28571
7 1290_5 *1293:A 0
8 1290_4 1290_6 5.11429
9 1290_6 *1294:A 0
10 1290_1 1290_7 5.60714
11 1290_7 *1295:C 0
*END
*D_NET *1296 0.0042192
*CONN
*I *1297:Y O *D BUFX2
*I *1298:A I *L 0
*I *1299:A I *L 0
*I *1300:A I *L 0
*I *1301:A I *L 0
*CAP
1 1296_1 0.0005544
2 1296_2 0.0002016
3 1296_3 0.000144
4 1296_4 0.0005112
5 1296_5 0.0019584
6 1296_6 0.0002016
7 1296_7 0.000648
*RES
1 *1297:Y 1296_1 2.82857
2 1296_1 1296_2 1.02857
3 1296_2 1296_3 0.5
4 1296_3 *1298:A 0
5 1296_2 1296_4 2.18571
6 1296_4 *1299:A 0
7 1296_1 1296_5 7.29286
8 1296_5 1296_6 1.02857
9 1296_6 *1300:A 0
10 1296_5 1296_7 2.66071
11 1296_7 *1301:A 0
*END
*D_NET *1302 0.0066024
*CONN
*I *1303:Y O *D _1131
*I *1304:A I *L 0
*I *1305:A I *L 0
*I *1306:A I *L 0
*I *1307:A I *L 0
*CAP
1 1302_1 0.000216
2 1302_2 0.0001008
3 1302_3 0.0006048
4 1302_4 0.001044
5 1302_5 0.001044
6 1302_6 0.002124
7 1302_7 0.0014688
*RES
1 *1303:Y 1302_1 0.75
2 1302_1 1302_2 0.514286
3 1302_2 *1304:A 0
4 1302_1 1302_3 3.08571
5 1302_3 1302_4 3.625
6 1302_4 1302_5 5.26786
7 1302_5 *1305:A 0
8 1302_4 1302_6 8.19643
9 1302_6 *1306:A 0
10 1302_3 1302_7 6.49643
11 1302_7 *1307:A 0
*END
*D_NET *1308 0.0117504
*CONN
*I *1309:Y O *D BUFX2
*I *1310:C I *L 0
*I *1311:B I *L 0
*I *1312:C I *L 0
*I *1313:C I *L 0
*CAP
1 1308_1 0.0013032
2 1308_2 0.0009144
3 1308_3 0.0005472
4 1308_4 0.001836
5 1308_5 0.0037944
6 1308_6 0.0004536
7 1308_7 0.0029016
*RES
1 *1309:Y 1308_1 6.41429
2 1308_1 1308_2 3.25714
3 1308_2 1308_3 2.55714
4 1308_3 *1310:C 0
5 1308_2 1308_4 8.42857
6 1308_4 *1311:B 0
7 1308_1 1308_5 14.0786
8 1308_5 1308_6 2.31429
9 1308_6 *1312:C 0
10 1308_5 1308_7 12.4571
11 1308_7 *1313:C 0
*END
*D_NET *1314 0.006264
*CONN
*I *1315:Y O *D BUFX2
*I *1316:C I *L 0
*I *1317:C I *L 0
*I *1318:C I *L 0
*I *1319:C I *L 0
*CAP
1 1314_1 0.0002808
2 1314_2 0.0008208
3 1314_3 0.0037296
4 1314_4 0.000108
5 1314_5 0.0001008
6 1314_6 0.0009432
7 1314_7 0.0002808
*RES
1 *1315:Y 1314_1 1.13929
2 1314_1 1314_2 3.01429
3 1314_2 *1316:C 0
4 1314_1 1314_3 18.6179
5 1314_3 1314_4 0.375
6 1314_4 1314_5 0.514286
7 1314_5 *1317:C 0
8 1314_4 1314_6 3.52143
9 1314_6 *1318:C 0
10 1314_3 1314_7 1.13929
11 1314_7 *1319:C 0
*END
*D_NET *1320 0.0079704
*CONN
*I *1321:Y O *D BUFX2
*I *1322:C I *L 0
*I *1323:C I *L 0
*I *1324:C I *L 0
*I *1325:C I *L 0
*CAP
1 1320_1 0.0009432
2 1320_2 0.001728
3 1320_3 0.002592
4 1320_4 0.0001008
5 1320_5 0.0004104
6 1320_6 0.0001008
7 1320_7 0.0020952
*RES
1 *1321:Y 1320_1 3.52143
2 1320_1 1320_2 8.05357
3 1320_2 *1322:C 0
4 1320_1 1320_3 9
5 1320_3 1320_4 0.514286
6 1320_4 *1323:C 0
7 1320_3 1320_5 1.50714
8 1320_5 1320_6 0.514286
9 1320_6 *1324:C 0
10 1320_5 1320_7 9.32857
11 1320_7 *1325:C 0
*END
*D_NET *1326 0.0074016
*CONN
*I *1327:Y O *D _1104
*I *1328:A I *L 0
*I *1329:A I *L 0
*I *1330:A I *L 0
*I *1331:A I *L 0
*CAP
1 1326_1 0.0003528
2 1326_2 0.0005184
3 1326_3 0.0002016
4 1326_4 0.0016128
5 1326_5 0.0021024
6 1326_6 0.0009504
7 1326_7 0.0016632
*RES
1 *1327:Y 1326_1 1.8
2 1326_1 1326_2 1.88214
3 1326_2 1326_3 1.02857
4 1326_3 *1328:A 0
5 1326_2 1326_4 7.57143
6 1326_4 *1329:A 0
7 1326_1 1326_5 8.20357
8 1326_5 1326_6 4.61429
9 1326_6 *1330:A 0
10 1326_5 1326_7 6.84286
11 1326_7 *1331:A 0
*END
*D_NET *1332 0.010512
*CONN
*I *1333:Y O *D _1843
*I *1334:A I *L 0
*I *1335:A I *L 0
*I *1336:A I *L 0
*I *1337:A I *L 0
*CAP
1 1332_1 0.0048816
2 1332_2 0.0002016
3 1332_3 0.003924
4 1332_4 0.0001512
5 1332_5 0.0003816
6 1332_6 0.000252
7 1332_7 0.00072
*RES
1 *1333:Y 1332_1 17.2786
2 1332_1 1332_2 1.02857
3 1332_2 *1334:A 0
4 1332_1 1332_3 13.625
5 1332_3 1332_4 0.771429
6 1332_4 *1335:A 0
7 1332_3 1332_5 1.65357
8 1332_5 1332_6 1.28571
9 1332_6 *1336:A 0
10 1332_5 1332_7 2.91071
11 1332_7 *1337:A 0
*END
*D_NET *1338 0.0032688
*CONN
*I *1339:Y O *D BUFX2
*I *1340:B I *L 0
*I *1341:B I *L 0
*I *1342:B I *L 0
*I *1343:B I *L 0
*CAP
1 1338_1 0.0009576
2 1338_2 0.0001008
3 1338_3 0.0004032
4 1338_4 0.0004032
5 1338_5 0.000612
6 1338_6 0.0003528
7 1338_7 0.0004392
*RES
1 *1339:Y 1338_1 3.9
2 1338_1 1338_2 0.514286
3 1338_2 *1340:B 0
4 1338_1 1338_3 2.05714
5 1338_3 1338_4 1.64643
6 1338_4 *1341:B 0
7 1338_3 1338_5 2.125
8 1338_5 1338_6 1.38929
9 1338_6 *1342:B 0
10 1338_5 1338_7 1.77143
11 1338_7 *1343:B 0
*END
*D_NET *1344 0.0258984
*CONN
*I *1345:Y O *D BUFX2
*I *1346:B I *L 0
*I *1347:B I *L 0
*I *1348:B I *L 0
*I *1349:B I *L 0
*CAP
1 1344_1 0.000216
2 1344_2 0.00018
3 1344_3 0.0005112
4 1344_4 0.0001512
5 1344_5 0.0004392
6 1344_6 0.0244008
*RES
1 *1345:Y 1344_1 0.75
2 1344_1 1344_2 0.625
3 1344_2 *1346:B 0
4 1344_2 1344_3 2.02143
5 1344_3 1344_4 0.771429
6 1344_4 *1347:B 0
7 1344_3 1344_5 1.77143
8 1344_5 *1348:B 0
9 1344_1 1344_6 116.268
10 1344_6 *1349:B 0
*END
*D_NET *1350 0.0135648
*CONN
*I *1351:Y O *D _1208
*I *1352:A I *L 0
*I *1353:A I *L 0
*I *1354:A I *L 0
*I *1355:A I *L 0
*CAP
1 1350_1 0.0026712
2 1350_2 0.000252
3 1350_3 0.0001512
4 1350_4 0.0039456
5 1350_5 0.0028872
6 1350_6 0.0008064
7 1350_7 0.0028512
*RES
1 *1351:Y 1350_1 13.2179
2 1350_1 1350_2 0.875
3 1350_2 1350_3 0.771429
4 1350_3 *1352:A 0
5 1350_2 1350_4 14.4393
6 1350_4 1350_5 13.5571
7 1350_5 *1353:A 0
8 1350_4 1350_6 4.11429
9 1350_6 *1354:A 0
10 1350_1 1350_7 10.5571
11 1350_7 *1355:A 0
*END
*D_NET *1356 0.00558
*CONN
*I *1357:Y O *D BUFX2
*I *1358:D I *L 0
*I *1359:D I *L 0
*I *1360:D I *L 0
*I *1361:D I *L 0
*CAP
1 1356_1 0.001044
2 1356_2 0.0009864
3 1356_3 0.000864
4 1356_4 0.000252
5 1356_5 0.000396
6 1356_6 0.000432
7 1356_7 0.0016056
*RES
1 *1357:Y 1356_1 5.26786
2 1356_1 1356_2 3.91786
3 1356_2 *1358:D 0
4 1356_1 1356_3 3
5 1356_3 1356_4 1.28571
6 1356_4 *1359:D 0
7 1356_3 1356_5 1.375
8 1356_5 1356_6 1.91071
9 1356_6 *1360:D 0
10 1356_5 1356_7 7.54643
11 1356_7 *1361:D 0
*END
*D_NET *1362 0.008064
*CONN
*I *1363:Y O *D BUFX2
*I *1364:D I *L 0
*I *1365:C I *L 0
*I *1366:C I *L 0
*I *1367:D I *L 0
*CAP
1 1362_1 0.002268
2 1362_2 0.000792
3 1362_3 0.00234
4 1362_4 0.0001512
5 1362_5 0.000288
6 1362_6 0.0002952
7 1362_7 0.0019296
*RES
1 *1363:Y 1362_1 10.75
2 1362_1 1362_2 3.57143
3 1362_2 *1364:D 0
4 1362_1 1362_3 8.53571
5 1362_3 1362_4 0.771429
6 1362_4 *1365:C 0
7 1362_3 1362_5 1
8 1362_5 1362_6 1.27143
9 1362_6 *1366:C 0
10 1362_5 1362_7 8.67143
11 1362_7 *1367:D 0
*END
*D_NET *1368 0.0074952
*CONN
*I *1369:Y O *D BUFX2
*I *1370:D I *L 0
*I *1371:D I *L 0
*I *1372:D I *L 0
*I *1373:D I *L 0
*CAP
1 1368_1 0.000504
2 1368_2 0.0002592
3 1368_3 0.000396
4 1368_4 0.001332
5 1368_5 0.0012384
6 1368_6 0.0013104
7 1368_7 0.0024552
*RES
1 *1369:Y 1368_1 2.57143
2 1368_1 1368_2 1.14643
3 1368_2 1368_3 1.78571
4 1368_3 *1370:D 0
5 1368_2 1368_4 5.03571
6 1368_4 *1371:D 0
7 1368_1 1368_5 4.38214
8 1368_5 1368_6 6.275
9 1368_6 *1372:D 0
10 1368_5 1368_7 11.2357
11 1368_7 *1373:D 0
*END
*D_NET *1374 0.005256
*CONN
*I *1375:Y O *D _898
*I *1376:B I *L 0
*I *1377:C I *L 0
*I *1378:C I *L 0
*I *1379:C I *L 0
*CAP
1 1374_1 3.6e-05
2 1374_2 0.0004392
3 1374_3 0.000612
4 1374_4 0.0004392
5 1374_5 0.0010728
6 1374_6 0.0026568
*RES
1 *1375:Y 1374_1 0.125
2 1374_1 1374_2 1.77143
3 1374_2 *1376:B 0
4 1374_1 1374_3 2.125
5 1374_3 *1377:C 0
6 1374_3 1374_4 2.18214
7 1374_4 1374_5 4.3
8 1374_5 *1378:C 0
9 1374_4 1374_6 12.675
10 1374_6 *1379:C 0
*END
*D_NET *1380 0.0044424
*CONN
*I *1381:Q O *D _1022
*I *1382:A I *L 0
*I *1383:B I *L 0
*I *1384:B I *L 0
*I *1385:C I *L 0
*CAP
1 1380_1 0.0004392
2 1380_2 0.000252
3 1380_3 0.0004032
4 1380_4 0.00126
5 1380_5 0.0004032
6 1380_6 0.0006552
7 1380_7 0.0010296
*RES
1 *1381:Q 1380_1 1.77143
2 1380_1 1380_2 0.875
3 1380_2 1380_3 2.05714
4 1380_3 *1382:A 0
5 1380_2 1380_4 4.375
6 1380_4 1380_5 2.05714
7 1380_5 *1383:B 0
8 1380_4 1380_6 2.52143
9 1380_6 *1384:B 0
10 1380_1 1380_7 4.39643
11 1380_7 *1385:C 0
*END
*D_NET *1386 0.0031392
*CONN
*I *1387:Q O *D _1529
*I *1388:A I *L 0
*I *1389:A I *L 0
*I *1390:A I *L 0
*I *1391:A I *L 0
*CAP
1 1386_1 0.0012744
2 1386_2 0.0004824
3 1386_3 3.6e-05
4 1386_4 0.000252
5 1386_5 0.0006552
6 1386_6 0.000144
7 1386_7 0.0002952
*RES
1 *1387:Q 1386_1 4.91786
2 1386_1 1386_2 2.16786
3 1386_2 1386_3 0.125
4 1386_3 *1388:A 0
5 1386_3 1386_4 0.875
6 1386_4 *1389:A 0
7 1386_1 1386_5 3.34286
8 1386_5 1386_6 0.5
9 1386_6 *1390:A 0
10 1386_5 1386_7 1.27143
11 1386_7 *1391:A 0
*END
*D_NET *1392 0.003204
*CONN
*I *1393:Y O *D _1037
*I *1394:A I *L 0
*I *1395:A I *L 0
*I *1396:B I *L 0
*I *1397:C I *L 0
*CAP
1 1392_1 3.6e-05
2 1392_2 0.000216
3 1392_3 0.0007488
4 1392_4 3.6e-05
5 1392_5 0.000216
6 1392_6 0.0019512
*RES
1 *1393:Y 1392_1 0.125
2 1392_1 1392_2 0.75
3 1392_2 *1394:A 0
4 1392_1 1392_3 3.58571
5 1392_3 *1395:A 0
6 1392_3 1392_4 0.125
7 1392_4 1392_5 0.75
8 1392_5 *1396:B 0
9 1392_4 1392_6 8.25357
10 1392_6 *1397:C 0
*END
*D_NET *1398 0.0056232
*CONN
*I *1399:Y O *D _1038
*I *1400:A I *L 0
*I *1401:A I *L 0
*I *1402:A I *L 0
*I *1403:B I *L 0
*CAP
1 1398_1 0.0008424
2 1398_2 0.0001512
3 1398_3 0.0020016
4 1398_4 0.00036
5 1398_5 0.0006552
6 1398_6 0.0003888
7 1398_7 0.001224
*RES
1 *1399:Y 1398_1 3.41786
2 1398_1 1398_2 0.771429
3 1398_2 *1400:A 0
4 1398_1 1398_3 8.1
5 1398_3 1398_4 1.66071
6 1398_4 *1401:A 0
7 1398_3 1398_5 3.34286
8 1398_5 1398_6 1.51429
9 1398_6 *1402:A 0
10 1398_5 1398_7 5.07143
11 1398_7 *1403:B 0
*END
*D_NET *1404 0.0054936
*CONN
*I *1405:Y O *D _1040
*I *1406:C I *L 0
*I *1407:B I *L 0
*I *1408:B I *L 0
*I *1409:B I *L 0
*CAP
1 1404_1 0.0026568
2 1404_2 0.0008496
3 1404_3 0.00018
4 1404_4 0.001008
5 1404_5 3.6e-05
6 1404_6 0.0007632
*RES
1 *1405:Y 1404_1 12.8393
2 1404_1 1404_2 4.1
3 1404_2 *1406:C 0
4 1404_1 1404_3 0.625
5 1404_3 *1407:B 0
6 1404_1 1404_4 3.5
7 1404_4 1404_5 0.125
8 1404_5 *1408:B 0
9 1404_5 1404_6 3.30714
10 1404_6 *1409:B 0
*END
*D_NET *1410 0.00414
*CONN
*I *1411:Q O *D _1520
*I *1412:A I *L 0
*I *1413:A I *L 0
*I *1414:A I *L 0
*I *1415:A I *L 0
*CAP
1 1410_1 0.0003672
2 1410_2 0.000108
3 1410_3 3.6e-05
4 1410_4 0.0004752
5 1410_5 0.0022464
6 1410_6 0.000108
7 1410_7 0.0007992
*RES
1 *1411:Q 1410_1 1.52143
2 1410_1 1410_2 0.375
3 1410_2 1410_3 0.125
4 1410_3 *1412:A 0
5 1410_3 1410_4 1.89643
6 1410_4 *1413:A 0
7 1410_1 1410_5 11.1679
8 1410_5 1410_6 0.375
9 1410_6 *1414:A 0
10 1410_5 1410_7 3.84286
11 1410_7 *1415:A 0
*END
*D_NET *1416 0.0090072
*CONN
*I *1417:Y O *D _1059
*I *1418:B I *L 0
*I *1419:C I *L 0
*I *1420:B I *L 0
*I *1421:A I *L 0
*CAP
1 1416_1 0.0009864
2 1416_2 0.0019296
3 1416_3 3.6e-05
4 1416_4 0.0018576
5 1416_5 0.003456
6 1416_6 0.0001008
7 1416_7 0.0006408
*RES
1 *1417:Y 1416_1 4.32857
2 1416_1 1416_2 9.49286
3 1416_2 1416_3 0.125
4 1416_3 *1418:B 0
5 1416_3 1416_4 7.10714
6 1416_4 *1419:C 0
7 1416_1 1416_5 15.2857
8 1416_5 1416_6 0.514286
9 1416_6 *1420:B 0
10 1416_5 1416_7 2.55357
11 1416_7 *1421:A 0
*END
*D_NET *1422 0.0031536
*CONN
*I *1423:Q O *D _1523
*I *1424:A I *L 0
*I *1425:B I *L 0
*I *1426:A I *L 0
*I *1427:C I *L 0
*CAP
1 1422_1 0.0001512
2 1422_2 0.000324
3 1422_3 0.0001512
4 1422_4 0.0004392
5 1422_5 0.000252
6 1422_6 0.001836
*RES
1 *1423:Q 1422_1 0.771429
2 1422_1 1422_2 1.125
3 1422_2 1422_3 0.771429
4 1422_3 *1424:A 0
5 1422_2 1422_4 1.77143
6 1422_4 *1425:B 0
7 1422_4 1422_5 0.875
8 1422_5 *1426:A 0
9 1422_1 1422_6 7.27857
10 1422_6 *1427:C 0
*END
*D_NET *1428 0.0035496
*CONN
*I *1429:Y O *D _1094
*I *1430:A I *L 0
*I *1431:C I *L 0
*I *1432:C I *L 0
*I *1433:A I *L 0
*CAP
1 1428_1 0.0013608
2 1428_2 3.6e-05
3 1428_3 0.000432
4 1428_4 0.0009576
5 1428_5 0.0007632
*RES
1 *1429:Y 1428_1 6.12143
2 1428_1 *1430:A 0
3 1428_1 1428_2 0.125
4 1428_2 1428_3 1.5
5 1428_3 *1431:C 0
6 1428_2 1428_4 4.475
7 1428_4 *1432:C 0
8 1428_4 1428_5 3.30714
9 1428_5 *1433:A 0
*END
*D_NET *1434 0.0052776
*CONN
*I *1435:Q O *D _1508
*I *1436:A I *L 0
*I *1437:A I *L 0
*I *1438:A I *L 0
*I *1439:B I *L 0
*CAP
1 1434_1 0.0012168
2 1434_2 0.000144
3 1434_3 0.00072
4 1434_4 0.0001512
5 1434_5 0.0009648
6 1434_6 0.0004032
7 1434_7 0.0016776
*RES
1 *1435:Q 1434_1 5.62143
2 1434_1 1434_2 0.5
3 1434_2 *1436:A 0
4 1434_1 1434_3 2.91071
5 1434_3 1434_4 0.771429
6 1434_4 *1437:A 0
7 1434_3 1434_5 4.33571
8 1434_5 1434_6 1.64643
9 1434_6 *1438:A 0
10 1434_5 1434_7 7.79643
11 1434_7 *1439:B 0
*END
*D_NET *1440 0.0041328
*CONN
*I *1441:Y O *D _1116
*I *1442:A I *L 0
*I *1443:A I *L 0
*I *1444:A I *L 0
*I *1445:C I *L 0
*CAP
1 1440_1 0.00036
2 1440_2 0.0004752
3 1440_3 0.0001512
4 1440_4 0.000396
5 1440_5 0.0002016
6 1440_6 0.0025488
*RES
1 *1441:Y 1440_1 1.25
2 1440_1 *1442:A 0
3 1440_1 1440_2 1.89643
4 1440_2 1440_3 0.771429
5 1440_3 *1443:A 0
6 1440_2 1440_4 1.375
7 1440_4 1440_5 1.02857
8 1440_5 *1444:A 0
9 1440_4 1440_6 10.6571
10 1440_6 *1445:C 0
*END
*D_NET *1446 0.0032904
*CONN
*I *1447:Y O *D _1119
*I *1448:A I *L 0
*I *1449:A I *L 0
*I *1450:C I *L 0
*I *1451:A I *L 0
*CAP
1 1446_1 0.000108
2 1446_2 0.000216
3 1446_3 0.0004536
4 1446_4 0.0005112
5 1446_5 0.000468
6 1446_6 0.0003024
7 1446_7 0.0012312
*RES
1 *1447:Y 1446_1 0.375
2 1446_1 1446_2 0.75
3 1446_2 *1448:A 0
4 1446_1 1446_3 2.31429
5 1446_3 1446_4 2.43214
6 1446_4 *1449:A 0
7 1446_3 1446_5 1.625
8 1446_5 1446_6 1.54286
9 1446_6 *1450:C 0
10 1446_5 1446_7 5.34286
11 1446_7 *1451:A 0
*END
*D_NET *1452 0.0055584
*CONN
*I *1453:Y O *D _1120
*I *1454:A I *L 0
*I *1455:A I *L 0
*I *1456:B I *L 0
*I *1457:A I *L 0
*CAP
1 1452_1 0.000576
2 1452_2 0.0019944
3 1452_3 0.0005112
4 1452_4 0.0001512
5 1452_5 0.0008712
6 1452_6 0.0014544
*RES
1 *1453:Y 1452_1 2
2 1452_1 *1454:A 0
3 1452_1 1452_2 8.65
4 1452_2 1452_3 2.43214
5 1452_3 *1455:A 0
6 1452_2 1452_4 0.771429
7 1452_4 1452_5 3.68214
8 1452_5 *1456:B 0
9 1452_4 1452_6 6.775
10 1452_6 *1457:A 0
*END
*D_NET *1458 0.0043128
*CONN
*I *1459:Y O *D _1227
*I *1460:A I *L 0
*I *1461:B I *L 0
*I *1462:A I *L 0
*I *1463:B I *L 0
*CAP
1 1458_1 0.0007488
2 1458_2 3.6e-05
3 1458_3 0.0005112
4 1458_4 0.000108
5 1458_5 0.0009576
6 1458_6 0.0008496
7 1458_7 0.0011016
*RES
1 *1459:Y 1458_1 3.58571
2 1458_1 1458_2 0.125
3 1458_2 *1460:A 0
4 1458_2 1458_3 2.02143
5 1458_3 1458_4 0.375
6 1458_4 *1461:B 0
7 1458_3 1458_5 4.88571
8 1458_5 1458_6 3.77143
9 1458_6 *1462:A 0
10 1458_5 1458_7 4.56429
11 1458_7 *1463:B 0
*END
*D_NET *1464 0.0047952
*CONN
*I *1465:Y O *D _1273
*I *1466:A I *L 0
*I *1467:C I *L 0
*I *1468:A I *L 0
*I *1469:B I *L 0
*CAP
1 1464_1 0.000432
2 1464_2 0.0004464
3 1464_3 0.001152
4 1464_4 0.0007848
5 1464_5 0.0011232
6 1464_6 0.0006048
7 1464_7 0.000252
*RES
1 *1465:Y 1464_1 1.82857
2 1464_1 1464_2 1.71429
3 1464_2 *1466:A 0
4 1464_1 1464_3 5.39643
5 1464_3 1464_4 3.3
6 1464_4 *1467:C 0
7 1464_3 1464_5 4.55714
8 1464_5 1464_6 3.08571
9 1464_6 *1468:A 0
10 1464_5 1464_7 0.875
11 1464_7 *1469:B 0
*END
*D_NET *1470 0.0038376
*CONN
*I *1471:Y O *D _1328
*I *1472:A I *L 0
*I *1473:A I *L 0
*I *1474:A I *L 0
*I *1475:B I *L 0
*CAP
1 1470_1 0.0002376
2 1470_2 0.0005688
3 1470_3 0.001656
4 1470_4 0.0003528
5 1470_5 0.00036
6 1470_6 0.0006624
*RES
1 *1471:Y 1470_1 1.15357
2 1470_1 1470_2 2.55
3 1470_2 *1472:A 0
4 1470_1 1470_3 5.75
5 1470_3 1470_4 1.8
6 1470_4 *1473:A 0
7 1470_4 1470_5 1.25
8 1470_5 *1474:A 0
9 1470_3 1470_6 2.79286
10 1470_6 *1475:B 0
*END
*D_NET *1476 0.0064296
*CONN
*I *1477:Y O *D _1344
*I *1478:A I *L 0
*I *1479:B I *L 0
*I *1480:C I *L 0
*I *1481:B I *L 0
*CAP
1 1476_1 0.0002304
2 1476_2 0.0003312
3 1476_3 0.0034128
4 1476_4 0.0006048
5 1476_5 0.0001512
6 1476_6 0.0009648
7 1476_7 0.0007344
*RES
1 *1477:Y 1476_1 0.882143
2 1476_1 1476_2 1.39643
3 1476_2 *1478:A 0
4 1476_1 1476_3 16.1214
5 1476_3 1476_4 3.08571
6 1476_4 1476_5 0.771429
7 1476_5 *1479:B 0
8 1476_4 1476_6 3.51429
9 1476_6 *1480:C 0
10 1476_3 1476_7 3.04286
11 1476_7 *1481:B 0
*END
*D_NET *1482 0.0039672
*CONN
*I *1483:Y O *D _1355
*I *1484:A I *L 0
*I *1485:A I *L 0
*I *1486:A I *L 0
*I *1487:A I *L 0
*CAP
1 1482_1 0.00162
2 1482_2 0.000108
3 1482_3 0.000144
4 1482_4 0.0010512
5 1482_5 0.001044
*RES
1 *1483:Y 1482_1 7.26786
2 1482_1 *1484:A 0
3 1482_1 1482_2 0.375
4 1482_2 1482_3 0.5
5 1482_3 *1485:A 0
6 1482_2 1482_4 4.71786
7 1482_4 *1486:A 0
8 1482_4 1482_5 4.44643
9 1482_5 *1487:A 0
*END
*D_NET *1488 0.0169128
*CONN
*I *1489:Y O *D _1370
*I *1490:A I *L 0
*I *1491:B I *L 0
*I *1492:A I *L 0
*I *1493:B I *L 0
*CAP
1 1488_1 0.0135
2 1488_2 0.0001512
3 1488_3 0.000252
4 1488_4 0.0016776
5 1488_5 0.0001008
6 1488_6 0.0005976
7 1488_7 0.0006336
*RES
1 *1489:Y 1488_1 65.5214
2 1488_1 1488_2 0.771429
3 1488_2 1488_3 1.28571
4 1488_3 *1490:A 0
5 1488_2 1488_4 7.38571
6 1488_4 1488_5 0.514286
7 1488_5 *1491:B 0
8 1488_4 1488_6 2.40357
9 1488_6 *1492:A 0
10 1488_1 1488_7 2.52857
11 1488_7 *1493:B 0
*END
*D_NET *1494 0.0055512
*CONN
*I *1495:Y O *D _1400
*I *1496:B I *L 0
*I *1497:A I *L 0
*I *1498:B I *L 0
*I *1499:C I *L 0
*CAP
1 1494_1 0.0003024
2 1494_2 0.000396
3 1494_3 0.0014688
4 1494_4 0.0004536
5 1494_5 0.0016272
6 1494_6 0.0006192
7 1494_7 0.000684
*RES
1 *1495:Y 1494_1 1.54286
2 1494_1 1494_2 1.78571
3 1494_2 *1496:B 0
4 1494_1 1494_3 6.49643
5 1494_3 1494_4 2.31429
6 1494_4 *1497:A 0
7 1494_3 1494_5 5.89643
8 1494_5 1494_6 2.80714
9 1494_6 *1498:B 0
10 1494_5 1494_7 3.19643
11 1494_7 *1499:C 0
*END
*D_NET *1500 0.0046728
*CONN
*I *1501:Y O *D _1424
*I *1502:A I *L 0
*I *1503:B I *L 0
*I *1504:B I *L 0
*I *1505:B I *L 0
*CAP
1 1500_1 0.0016056
2 1500_2 0.0006336
3 1500_3 0.0010944
4 1500_4 0.0010512
5 1500_5 0.000108
6 1500_6 0.00018
*RES
1 *1501:Y 1500_1 7.13571
2 1500_1 *1502:A 0
3 1500_1 1500_2 2.52857
4 1500_2 1500_3 4.70357
5 1500_3 *1503:B 0
6 1500_2 1500_4 5.12857
7 1500_4 1500_5 0.375
8 1500_5 *1504:B 0
9 1500_4 1500_6 0.625
10 1500_6 *1505:B 0
*END
*D_NET *1506 0.0037584
*CONN
*I *1507:Q O *D _1627
*I *1508:A I *L 0
*I *1509:A I *L 0
*I *1510:A I *L 0
*I *1511:A I *L 0
*CAP
1 1506_1 0.000324
2 1506_2 0.0015984
3 1506_3 0.0010872
4 1506_4 0.000144
5 1506_5 0.0006048
*RES
1 *1507:Q 1506_1 1.125
2 1506_1 *1508:A 0
3 1506_1 1506_2 6.45357
4 1506_2 *1509:A 0
5 1506_2 1506_3 5.25357
6 1506_3 1506_4 0.5
7 1506_4 *1510:A 0
8 1506_3 1506_5 3.08571
9 1506_5 *1511:A 0
*END
*D_NET *1512 0.009612
*CONN
*I *1513:Y O *D _1606
*I *1514:A I *L 0
*I *1515:B I *L 0
*I *1516:B I *L 0
*I *1517:A I *L 0
*CAP
1 1512_1 0.0001512
2 1512_2 0.002484
3 1512_3 0.0043704
4 1512_4 0.0003528
5 1512_5 0.0002808
6 1512_6 0.0003816
7 1512_7 0.0015912
*RES
1 *1513:Y 1512_1 0.771429
2 1512_1 1512_2 10.6786
3 1512_2 *1514:A 0
4 1512_1 1512_3 20.7607
5 1512_3 1512_4 1.8
6 1512_4 1512_5 1.13929
7 1512_5 *1515:B 0
8 1512_4 1512_6 1.65357
9 1512_6 *1516:B 0
10 1512_3 1512_7 6.18214
11 1512_7 *1517:A 0
*END
*D_NET *1518 0.0039384
*CONN
*I *1519:Q O *D _1998
*I *1520:A I *L 0
*I *1521:A I *L 0
*I *1522:A I *L 0
*I *1523:A I *L 0
*CAP
1 1518_1 0.0009432
2 1518_2 0.000468
3 1518_3 0.000144
4 1518_4 0.000612
5 1518_5 0.000864
6 1518_6 0.000504
7 1518_7 0.0004032
*RES
1 *1519:Q 1518_1 3.52143
2 1518_1 1518_2 2.03571
3 1518_2 *1520:A 0
4 1518_1 1518_3 0.5
5 1518_3 1518_4 2.94643
6 1518_4 *1521:A 0
7 1518_3 1518_5 3
8 1518_5 1518_6 2.16071
9 1518_6 *1522:A 0
10 1518_5 1518_7 2.05714
11 1518_7 *1523:A 0
*END
*D_NET *1524 0.0032616
*CONN
*I *1525:Q O *D _1997
*I *1526:A I *L 0
*I *1527:B I *L 0
*I *1528:B I *L 0
*I *1529:A I *L 0
*CAP
1 1524_1 0.000504
2 1524_2 0.000108
3 1524_3 0.0003384
4 1524_4 0.0009
5 1524_5 5.04e-05
6 1524_6 0.0004608
7 1524_7 0.0009
*RES
1 *1525:Q 1524_1 2.16071
2 1524_1 1524_2 0.375
3 1524_2 1524_3 1.66786
4 1524_3 *1526:A 0
5 1524_2 1524_4 3.53571
6 1524_4 *1527:B 0
7 1524_1 1524_5 0.257143
8 1524_5 1524_6 2.175
9 1524_6 *1528:B 0
10 1524_5 1524_7 4.02857
11 1524_7 *1529:A 0
*END
*D_NET *1530 0.0027144
*CONN
*I *1531:Y O *D _1648
*I *1532:B I *L 0
*I *1533:A I *L 0
*I *1534:A I *L 0
*I *1535:B I *L 0
*CAP
1 1530_1 0.000324
2 1530_2 3.6e-05
3 1530_3 0.000108
4 1530_4 0.000144
5 1530_5 0.0010872
6 1530_6 0.0010152
*RES
1 *1531:Y 1530_1 1.125
2 1530_1 1530_2 0.125
3 1530_2 *1532:B 0
4 1530_2 1530_3 0.375
5 1530_3 1530_4 0.5
6 1530_4 *1533:A 0
7 1530_3 1530_5 5.25357
8 1530_5 *1534:A 0
9 1530_2 1530_6 4.75714
10 1530_6 *1535:B 0
*END
*D_NET *1536 0.0027
*CONN
*I *1537:Y O *D _1649
*I *1538:A I *L 0
*I *1539:A I *L 0
*I *1540:A I *L 0
*I *1541:A I *L 0
*CAP
1 1536_1 0.0009288
2 1536_2 3.6e-05
3 1536_3 0.000432
4 1536_4 0.000144
5 1536_5 0.0006048
6 1536_6 0.000108
7 1536_7 0.0004464
*RES
1 *1537:Y 1536_1 3.88214
2 1536_1 1536_2 0.125
3 1536_2 *1538:A 0
4 1536_2 1536_3 1.5
5 1536_3 1536_4 0.5
6 1536_4 *1539:A 0
7 1536_3 1536_5 3.08571
8 1536_5 1536_6 0.375
9 1536_6 *1540:A 0
10 1536_5 1536_7 1.71429
11 1536_7 *1541:A 0
*END
*D_NET *1542 0.0074664
*CONN
*I *1543:Y O *D _1650
*I *1544:A I *L 0
*I *1545:A I *L 0
*I *1546:A I *L 0
*I *1547:A I *L 0
*CAP
1 1542_1 0.0004176
2 1542_2 0.001368
3 1542_3 0.0004104
4 1542_4 0.0020664
5 1542_5 0.00126
6 1542_6 0.0006048
7 1542_7 0.0013392
*RES
1 *1543:Y 1542_1 1.77857
2 1542_1 1542_2 4.75
3 1542_2 1542_3 1.91786
4 1542_3 *1544:A 0
5 1542_2 1542_4 10.1321
6 1542_4 *1545:A 0
7 1542_1 1542_5 6.42857
8 1542_5 1542_6 2.34643
9 1542_6 *1546:A 0
10 1542_5 1542_7 5.71786
11 1542_7 *1547:A 0
*END
*D_NET *1548 0.0076032
*CONN
*I *1549:Q O *D _1992
*I *1550:A I *L 0
*I *1551:A I *L 0
*I *1552:A I *L 0
*I *1553:A I *L 0
*CAP
1 1548_1 0.0020016
2 1548_2 0.0009648
3 1548_3 0.0002016
4 1548_4 3.6e-05
5 1548_5 0.0005976
6 1548_6 0.0038016
*RES
1 *1549:Q 1548_1 9.33214
2 1548_1 *1550:A 0
3 1548_1 1548_2 4.33571
4 1548_2 1548_3 1.02857
5 1548_3 *1551:A 0
6 1548_2 1548_4 0.125
7 1548_4 1548_5 2.40357
8 1548_5 *1552:A 0
9 1548_4 1548_6 18.4571
10 1548_6 *1553:A 0
*END
*D_NET *1554 0.003924
*CONN
*I *1555:Q O *D _1994
*I *1556:A I *L 0
*I *1557:A I *L 0
*I *1558:A I *L 0
*I *1559:A I *L 0
*CAP
1 1554_1 3.6e-05
2 1554_2 0.0010224
3 1554_3 0.000648
4 1554_4 0.0003024
5 1554_5 0.0011736
6 1554_6 0.0004896
7 1554_7 0.000252
*RES
1 *1555:Q 1554_1 0.125
2 1554_1 1554_2 4.45357
3 1554_2 1554_3 2.25
4 1554_3 1554_4 1.54286
5 1554_4 *1556:A 0
6 1554_3 1554_5 5.63571
7 1554_5 *1557:A 0
8 1554_2 1554_6 2.43929
9 1554_6 *1558:A 0
10 1554_1 1554_7 0.875
11 1554_7 *1559:A 0
*END
*D_NET *1560 0.0057312
*CONN
*I *1561:Q O *D _1975
*I *1562:A I *L 0
*I *1563:B I *L 0
*I *1564:A I *L 0
*I *1565:B I *L 0
*CAP
1 1560_1 0.000108
2 1560_2 0.0009072
3 1560_3 0.0030456
4 1560_4 0.000684
5 1560_5 0.0009864
*RES
1 *1561:Q 1560_1 0.375
2 1560_1 *1562:A 0
3 1560_1 1560_2 4.62857
4 1560_2 1560_3 13.9429
5 1560_3 *1563:B 0
6 1560_3 1560_4 3.19643
7 1560_4 *1564:A 0
8 1560_2 1560_5 3.67143
9 1560_5 *1565:B 0
*END
*D_NET *1566 0.0055944
*CONN
*I *1567:Y O *D _1730
*I *1568:A I *L 0
*I *1569:A I *L 0
*I *1570:A I *L 0
*I *1571:A I *L 0
*CAP
1 1566_1 0.0007848
2 1566_2 0.0001512
3 1566_3 0.000108
4 1566_4 0.000936
5 1566_5 0.000756
6 1566_6 0.0011808
7 1566_7 0.0016776
*RES
1 *1567:Y 1566_1 3.71071
2 1566_1 1566_2 0.771429
3 1566_2 *1568:A 0
4 1566_1 1566_3 0.375
5 1566_3 1566_4 4.48214
6 1566_4 *1569:A 0
7 1566_3 1566_5 2.625
8 1566_5 1566_6 5.49643
9 1566_6 *1570:A 0
10 1566_5 1566_7 6.975
11 1566_7 *1571:A 0
*END
*D_NET *1572 0.0073584
*CONN
*I *1573:Q O *D _1978
*I *1574:A I *L 0
*I *1575:A I *L 0
*I *1576:A I *L 0
*I *1577:A I *L 0
*CAP
1 1572_1 0.0006984
2 1572_2 0.00018
3 1572_3 0.0020448
4 1572_4 0.0008496
5 1572_5 0.0001512
6 1572_6 0.0029376
7 1572_7 0.0004968
*RES
1 *1573:Q 1572_1 3.32857
2 1572_1 1572_2 0.625
3 1572_2 *1574:A 0
4 1572_1 1572_3 7.675
5 1572_3 1572_4 3.68929
6 1572_4 1572_5 0.771429
7 1572_5 *1575:A 0
8 1572_4 1572_6 11.35
9 1572_6 *1576:A 0
10 1572_3 1572_7 2.3
11 1572_7 *1577:A 0
*END
*D_NET *1578 0.0037008
*CONN
*I *1579:Q O *D _1980
*I *1580:C I *L 0
*I *1581:B I *L 0
*I *1582:A I *L 0
*I *1583:B I *L 0
*CAP
1 1578_1 3.6e-05
2 1578_2 0.0004824
3 1578_3 0.000432
4 1578_4 0.0008352
5 1578_5 0.0006336
6 1578_6 0.0009216
7 1578_7 0.00036
*RES
1 *1579:Q 1578_1 0.125
2 1578_1 1578_2 2.16786
3 1578_2 1578_3 1.91071
4 1578_3 1578_4 3.55714
5 1578_4 *1580:C 0
6 1578_3 1578_5 2.93929
7 1578_5 *1581:B 0
8 1578_2 1578_6 3.52857
9 1578_6 *1582:A 0
10 1578_1 1578_7 1.25
11 1578_7 *1583:B 0
*END
*D_NET *1584 0.0067464
*CONN
*I *1585:Q O *D _1983
*I *1586:B I *L 0
*I *1587:A I *L 0
*I *1588:A I *L 0
*I *1589:A I *L 0
*CAP
1 1584_1 0.0004104
2 1584_2 0.000252
3 1584_3 0.000432
4 1584_4 0.00072
5 1584_5 0.00126
6 1584_6 0.0031608
7 1584_7 0.0005112
*RES
1 *1585:Q 1584_1 1.91786
2 1584_1 1584_2 1.28571
3 1584_2 *1586:B 0
4 1584_1 1584_3 1.5
5 1584_3 1584_4 3.32143
6 1584_4 1584_5 6.42857
7 1584_5 *1587:A 0
8 1584_4 1584_6 12.3714
9 1584_6 *1588:A 0
10 1584_3 1584_7 2.43214
11 1584_7 *1589:A 0
*END
*D_NET *1590 0.0037512
*CONN
*I *1591:Q O *D _1982
*I *1592:A I *L 0
*I *1593:A I *L 0
*I *1594:A I *L 0
*I *1595:A I *L 0
*CAP
1 1590_1 0.0011592
2 1590_2 0.0009648
3 1590_3 0.0001512
4 1590_4 0.0009648
5 1590_5 0.0005112
*RES
1 *1591:Q 1590_1 5.50357
2 1590_1 *1592:A 0
3 1590_1 1590_2 4.74643
4 1590_2 1590_3 0.771429
5 1590_3 *1593:A 0
6 1590_2 1590_4 4.33571
7 1590_4 *1594:A 0
8 1590_4 1590_5 2.02143
9 1590_5 *1595:A 0
*END
*D_NET *1596 0.0054792
*CONN
*I *1597:Y O *D _1745
*I *1598:B I *L 0
*I *1599:B I *L 0
*I *1600:B I *L 0
*I *1601:B I *L 0
*CAP
1 1596_1 0.0006552
2 1596_2 0.0005184
3 1596_3 0.0003528
4 1596_4 0.0016632
5 1596_5 0.0004536
6 1596_6 0.0010224
7 1596_7 0.0008136
*RES
1 *1597:Y 1596_1 2.93214
2 1596_1 1596_2 1.88214
3 1596_2 1596_3 1.8
4 1596_3 *1598:B 0
5 1596_2 1596_4 6.02143
6 1596_4 1596_5 2.31429
7 1596_5 *1599:B 0
8 1596_4 1596_6 4.04286
9 1596_6 *1600:B 0
10 1596_1 1596_7 3.72857
11 1596_7 *1601:B 0
*END
*D_NET *1602 0.005724
*CONN
*I *1603:Y O *D _1754
*I *1604:A I *L 0
*I *1605:B I *L 0
*I *1606:B I *L 0
*I *1607:B I *L 0
*CAP
1 1602_1 0.0008064
2 1602_2 0.0008784
3 1602_3 0.0018576
4 1602_4 0.0002592
5 1602_5 0.0012384
6 1602_6 0.0001008
7 1602_7 0.0005832
*RES
1 *1603:Y 1602_1 3.29286
2 1602_1 1602_2 3.54286
3 1602_2 *1604:A 0
4 1602_1 1602_3 9.24286
5 1602_3 1602_4 1.14643
6 1602_4 *1605:B 0
7 1602_3 1602_5 5.61429
8 1602_5 1602_6 0.514286
9 1602_6 *1606:B 0
10 1602_5 1602_7 2.27143
11 1602_7 *1607:B 0
*END
*D_NET *1608 0.008568
*CONN
*I *1609:Y O *D _1762
*I *1610:A I *L 0
*I *1611:A I *L 0
*I *1612:B I *L 0
*I *1613:C I *L 0
*CAP
1 1608_1 0.0003816
2 1608_2 0.0002448
3 1608_3 0.0010224
4 1608_4 0.0007416
5 1608_5 3.6e-05
6 1608_6 0.000396
7 1608_7 0.0057456
*RES
1 *1609:Y 1608_1 1.65357
2 1608_1 1608_2 1.01429
3 1608_2 *1610:A 0
4 1608_1 1608_3 3.63214
5 1608_3 1608_4 2.90357
6 1608_4 1608_5 0.125
7 1608_5 *1611:A 0
8 1608_5 1608_6 1.375
9 1608_6 *1612:B 0
10 1608_3 1608_7 25.9464
11 1608_7 *1613:C 0
*END
*D_NET *1614 0.0048672
*CONN
*I *1615:Y O *D _1777
*I *1616:B I *L 0
*I *1617:B I *L 0
*I *1618:B I *L 0
*I *1619:B I *L 0
*CAP
1 1614_1 0.000972
2 1614_2 0.000144
3 1614_3 0.000504
4 1614_4 0.0003528
5 1614_5 0.000468
6 1614_6 0.0004032
7 1614_7 0.0020232
*RES
1 *1615:Y 1614_1 3.375
2 1614_1 1614_2 0.5
3 1614_2 *1616:B 0
4 1614_1 1614_3 2.57143
5 1614_3 1614_4 1.8
6 1614_4 *1617:B 0
7 1614_3 1614_5 1.625
8 1614_5 1614_6 2.05714
9 1614_6 *1618:B 0
10 1614_5 1614_7 8.50357
11 1614_7 *1619:B 0
*END
*D_NET *1620 0.0025344
*CONN
*I *1621:Q O *D _1985
*I *1622:B I *L 0
*I *1623:A I *L 0
*I *1624:A I *L 0
*I *1625:A I *L 0
*CAP
1 1620_1 0.0002016
2 1620_2 0.000144
3 1620_3 0.0003528
4 1620_4 0.0003456
5 1620_5 0.000432
6 1620_6 0.0003528
7 1620_7 0.0007056
*RES
1 *1621:Q 1620_1 1.02857
2 1620_1 1620_2 0.5
3 1620_2 1620_3 1.8
4 1620_3 *1622:B 0
5 1620_2 1620_4 1.52857
6 1620_4 *1623:A 0
7 1620_1 1620_5 1.5
8 1620_5 1620_6 1.8
9 1620_6 *1624:A 0
10 1620_5 1620_7 2.77857
11 1620_7 *1625:A 0
*END
*D_NET *1626 0.0036864
*CONN
*I *1627:Y O *D _1824
*I *1628:B I *L 0
*I *1629:B I *L 0
*I *1630:B I *L 0
*I *1631:D I *L 0
*CAP
1 1626_1 0.001008
2 1626_2 0.0001008
3 1626_3 0.000108
4 1626_4 0.00054
5 1626_5 0.0008064
6 1626_6 0.0006192
7 1626_7 0.000504
*RES
1 *1627:Y 1626_1 4.32143
2 1626_1 1626_2 0.514286
3 1626_2 *1628:B 0
4 1626_1 1626_3 0.375
5 1626_3 1626_4 1.875
6 1626_4 *1629:B 0
7 1626_3 1626_5 4.11429
8 1626_5 1626_6 2.31429
9 1626_6 *1630:B 0
10 1626_5 1626_7 2.16071
11 1626_7 *1631:D 0
*END
*D_NET *1632 0.0103896
*CONN
*I *1633:Y O *D _1867
*I *1634:C I *L 0
*I *1635:C I *L 0
*I *1636:C I *L 0
*I *1637:C I *L 0
*CAP
1 1632_1 0.0051696
2 1632_2 0.0003096
3 1632_3 0.0001008
4 1632_4 0.001044
5 1632_5 0.0006048
6 1632_6 0.0005976
7 1632_7 0.0025632
*RES
1 *1633:Y 1632_1 24.4393
2 1632_1 1632_2 1.15714
3 1632_2 1632_3 0.514286
4 1632_3 *1634:C 0
5 1632_2 1632_4 4.03571
6 1632_4 *1635:C 0
7 1632_1 1632_5 3.08571
8 1632_5 1632_6 2.81429
9 1632_6 *1636:C 0
10 1632_5 1632_7 9.96786
11 1632_7 *1637:C 0
*END
*D_NET *1638 0.00324
*CONN
*I *1639:Y O *D _1871
*I *1640:B I *L 0
*I *1641:B I *L 0
*I *1642:B I *L 0
*I *1643:B I *L 0
*CAP
1 1638_1 0.0016128
2 1638_2 0.000144
3 1638_3 0.000504
4 1638_4 0.000108
5 1638_5 0.0006552
6 1638_6 0.000216
*RES
1 *1639:Y 1638_1 6.99643
2 1638_1 1638_2 0.5
3 1638_2 *1640:B 0
4 1638_2 1638_3 2.57143
5 1638_3 1638_4 0.375
6 1638_4 *1641:B 0
7 1638_3 1638_5 2.93214
8 1638_5 *1642:B 0
9 1638_1 1638_6 0.75
10 1638_6 *1643:B 0
*END
*D_NET *1644 0.0037008
*CONN
*I *1645:Y O *D _1872
*I *1646:A I *L 0
*I *1647:A I *L 0
*I *1648:C I *L 0
*I *1649:A I *L 0
*CAP
1 1644_1 0.0008568
2 1644_2 0.0004824
3 1644_3 0.0001008
4 1644_4 0.0007488
5 1644_5 0.000108
6 1644_6 0.000144
7 1644_7 0.00126
*RES
1 *1645:Y 1644_1 4.37143
2 1644_1 1644_2 1.75714
3 1644_2 1644_3 0.514286
4 1644_3 *1646:A 0
5 1644_2 1644_4 3.58571
6 1644_4 1644_5 0.375
7 1644_5 *1647:A 0
8 1644_4 1644_6 0.5
9 1644_6 *1648:C 0
10 1644_1 1644_7 5.19643
11 1644_7 *1649:A 0
*END
*D_NET *1650 0.0032904
*CONN
*I *1651:Y O *D _933
*I *1652:B I *L 0
*I *1653:B I *L 0
*I *1654:B I *L 0
*I *1655:B I *L 0
*CAP
1 1650_1 0.0002952
2 1650_2 0.000144
3 1650_3 0.0008784
4 1650_4 0.0001512
5 1650_5 0.000216
6 1650_6 0.0006048
7 1650_7 0.0010008
*RES
1 *1651:Y 1650_1 1.27143
2 1650_1 1650_2 0.5
3 1650_2 *1652:B 0
4 1650_1 1650_3 3.29643
5 1650_3 1650_4 0.771429
6 1650_4 *1653:B 0
7 1650_3 1650_5 0.75
8 1650_5 1650_6 3.08571
9 1650_6 *1654:B 0
10 1650_5 1650_7 3.63929
11 1650_7 *1655:B 0
*END
*D_NET *1656 0.0055656
*CONN
*I *1657:Y O *D _940
*I *1658:B I *L 0
*I *1659:B I *L 0
*I *1660:B I *L 0
*I *1661:B I *L 0
*CAP
1 1656_1 0.0011376
2 1656_2 0.0002304
3 1656_3 0.0002016
4 1656_4 0.0007344
5 1656_5 0.0014616
6 1656_6 0.0002448
7 1656_7 0.0015552
*RES
1 *1657:Y 1656_1 4.27857
2 1656_1 1656_2 0.882143
3 1656_2 1656_3 1.02857
4 1656_3 *1658:B 0
5 1656_2 1656_4 3.45357
6 1656_4 *1659:B 0
7 1656_1 1656_5 7.45714
8 1656_5 1656_6 1.01429
9 1656_6 *1660:B 0
10 1656_5 1656_7 6.96071
11 1656_7 *1661:B 0
*END
*D_NET *1662 0.0028224
*CONN
*I *1663:Q O *D _1021
*I *1664:B I *L 0
*I *1665:B I *L 0
*I *1666:C I *L 0
*CAP
1 1662_1 0.0007992
2 1662_2 0.0003528
3 1662_3 0.0005472
4 1662_4 0.0011232
*RES
1 *1663:Q 1662_1 3.84286
2 1662_1 1662_2 1.8
3 1662_2 *1664:B 0
4 1662_2 1662_3 2.14643
5 1662_3 *1665:B 0
6 1662_1 1662_4 4.55714
7 1662_4 *1666:C 0
*END
*D_NET *1667 0.0052344
*CONN
*I *1668:Q O *D _1007
*I *1669:A I *L 0
*I *1670:A I *L 0
*I *1671:B I *L 0
*CAP
1 1667_1 0.001404
2 1667_2 0.000504
3 1667_3 0.001008
4 1667_4 0.0007416
5 1667_5 0.0015768
*RES
1 *1668:Q 1667_1 6.51786
2 1667_1 1667_2 2.57143
3 1667_2 *1669:A 0
4 1667_1 1667_3 3.5
5 1667_3 1667_4 3.31429
6 1667_4 *1670:A 0
7 1667_3 1667_5 6.87143
8 1667_5 *1671:B 0
*END
*D_NET *1672 0.0064296
*CONN
*I *1673:Q O *D _1013
*I *1674:B I *L 0
*I *1675:B I *L 0
*I *1676:A I *L 0
*CAP
1 1672_1 0.0007056
2 1672_2 0.0003528
3 1672_3 0.001044
4 1672_4 0.0013608
5 1672_5 0.0029664
*RES
1 *1673:Q 1672_1 3.18929
2 1672_1 1672_2 1.8
3 1672_2 *1674:B 0
4 1672_1 1672_3 3.625
5 1672_3 1672_4 6.53214
6 1672_4 *1675:B 0
7 1672_3 1672_5 11.3679
8 1672_5 *1676:A 0
*END
*D_NET *1677 0.0035424
*CONN
*I *1678:Q O *D _1015
*I *1679:C I *L 0
*I *1680:B I *L 0
*I *1681:A I *L 0
*CAP
1 1677_1 0.000324
2 1677_2 0.0004392
3 1677_3 0.0008496
4 1677_4 0.0019296
*RES
1 *1678:Q 1677_1 1.125
2 1677_1 *1679:C 0
3 1677_1 1677_2 2.18214
4 1677_2 1677_3 3.68929
5 1677_3 *1680:B 0
6 1677_2 1677_4 7.43929
7 1677_4 *1681:A 0
*END
*D_NET *1682 0.0023976
*CONN
*I *1683:Q O *D _1019
*I *1684:C I *L 0
*I *1685:B I *L 0
*I *1686:A I *L 0
*CAP
1 1682_1 0.0009
2 1682_2 0.0005328
3 1682_3 0.0006408
4 1682_4 0.000144
5 1682_5 0.00018
*RES
1 *1683:Q 1682_1 4.35714
2 1682_1 1682_2 2.01429
3 1682_2 *1684:C 0
4 1682_1 1682_3 2.8
5 1682_3 1682_4 0.5
6 1682_4 *1685:B 0
7 1682_3 1682_5 0.625
8 1682_5 *1686:A 0
*END
*D_NET *1687 0.0031968
*CONN
*I *1688:Q O *D _1020
*I *1689:A I *L 0
*I *1690:B I *L 0
*I *1691:C I *L 0
*CAP
1 1687_1 0.0009936
2 1687_2 0.0006552
3 1687_3 0.0001008
4 1687_4 0.0009936
5 1687_5 0.0004536
*RES
1 *1688:Q 1687_1 3.77857
2 1687_1 1687_2 2.52143
3 1687_2 1687_3 0.514286
4 1687_3 *1689:A 0
5 1687_2 1687_4 4.18929
6 1687_4 *1690:B 0
7 1687_1 1687_5 2.31429
8 1687_5 *1691:C 0
*END
*D_NET *1692 0.0015552
*CONN
*I *1693:Q O *D _1023
*I *1694:A I *L 0
*I *1695:A I *L 0
*I *1696:C I *L 0
*CAP
1 1692_1 0.0002304
2 1692_2 0.0002952
3 1692_3 0.0007416
4 1692_4 0.000108
5 1692_5 0.00018
*RES
1 *1693:Q 1692_1 0.882143
2 1692_1 1692_2 1.27143
3 1692_2 *1694:A 0
4 1692_1 1692_3 3.725
5 1692_3 1692_4 0.375
6 1692_4 *1695:A 0
7 1692_3 1692_5 0.625
8 1692_5 *1696:C 0
*END
*D_NET *1697 0.0027432
*CONN
*I *1698:Y O *D _1035
*I *1699:A I *L 0
*I *1700:A I *L 0
*I *1701:A I *L 0
*CAP
1 1697_1 0.0003312
2 1697_2 0.0003456
3 1697_3 0.0016704
4 1697_4 3.6e-05
5 1697_5 0.00036
*RES
1 *1698:Y 1697_1 1.39643
2 1697_1 1697_2 1.52857
3 1697_2 *1699:A 0
4 1697_1 1697_3 7.11429
5 1697_3 1697_4 0.125
6 1697_4 *1700:A 0
7 1697_4 1697_5 1.25
8 1697_5 *1701:A 0
*END
*D_NET *1702 0.0053208
*CONN
*I *1703:Y O *D _1041
*I *1704:A I *L 0
*I *1705:C I *L 0
*I *1706:C I *L 0
*CAP
1 1702_1 0.0032976
2 1702_2 0.000252
3 1702_3 0.0001584
4 1702_4 0.0005328
5 1702_5 0.00108
*RES
1 *1703:Y 1702_1 13.4214
2 1702_1 1702_2 1.28571
3 1702_2 *1704:A 0
4 1702_1 1702_3 0.632143
5 1702_3 1702_4 2.425
6 1702_4 *1705:C 0
7 1702_3 1702_5 4.48929
8 1702_5 *1706:C 0
*END
*D_NET *1707 0.0031536
*CONN
*I *1708:Y O *D _1042
*I *1709:B I *L 0
*I *1710:B I *L 0
*I *1711:B I *L 0
*CAP
1 1707_1 0.0012816
2 1707_2 0.000972
3 1707_3 0.0003456
4 1707_4 0.0005544
*RES
1 *1708:Y 1707_1 4.77857
2 1707_1 1707_2 4.60714
3 1707_2 *1709:B 0
4 1707_1 1707_3 1.52857
5 1707_3 *1710:B 0
6 1707_1 1707_4 2.82857
7 1707_4 *1711:B 0
*END
*D_NET *1712 0.0028656
*CONN
*I *1713:Y O *D _1045
*I *1714:C I *L 0
*I *1715:B I *L 0
*I *1716:A I *L 0
*CAP
1 1712_1 0.0009432
2 1712_2 0.0001008
3 1712_3 0.0011304
4 1712_4 0.0003312
5 1712_5 0.00036
*RES
1 *1713:Y 1712_1 3.68571
2 1712_1 1712_2 0.514286
3 1712_2 *1714:C 0
4 1712_1 1712_3 4.82857
5 1712_3 1712_4 1.39643
6 1712_4 *1715:B 0
7 1712_3 1712_5 1.66071
8 1712_5 *1716:A 0
*END
*D_NET *1717 0.00468
*CONN
*I *1718:Y O *D _1051
*I *1719:B I *L 0
*I *1720:B I *L 0
*I *1721:C I *L 0
*CAP
1 1717_1 0.0002376
2 1717_2 0.0008136
3 1717_3 0.0017352
4 1717_4 0.000864
5 1717_5 0.0010296
*RES
1 *1718:Y 1717_1 1.15357
2 1717_1 1717_2 3.15357
3 1717_2 *1719:B 0
4 1717_1 1717_3 8.325
5 1717_3 1717_4 3.98571
6 1717_4 *1720:B 0
7 1717_3 1717_5 3.90357
8 1717_5 *1721:C 0
*END
*D_NET *1722 0.0017424
*CONN
*I *1723:Y O *D _1056
*I *1724:C I *L 0
*I *1725:B I *L 0
*I *1726:B I *L 0
*CAP
1 1722_1 0.000288
2 1722_2 0.000504
3 1722_3 0.000396
4 1722_4 0.0005544
*RES
1 *1723:Y 1722_1 1
2 1722_1 *1724:C 0
3 1722_1 1722_2 2.57143
4 1722_2 1722_3 1.78571
5 1722_3 *1725:B 0
6 1722_2 1722_4 2.41786
7 1722_4 *1726:B 0
*END
*D_NET *1727 0.0094896
*CONN
*I *1728:Y O *D _1887
*I *1729:B I *L 0
*I *1730:A I *L 0
*I *1731:A I *L 0
*CAP
1 1727_1 0.000504
2 1727_2 0.0055512
3 1727_3 0.0019152
4 1727_4 0.00072
5 1727_5 0.0007992
*RES
1 *1728:Y 1727_1 2.16071
2 1727_1 1727_2 27.325
3 1727_2 1727_3 7.71786
4 1727_3 *1729:B 0
5 1727_2 1727_4 2.5
6 1727_4 *1730:A 0
7 1727_1 1727_5 3.02143
8 1727_5 *1731:A 0
*END
*D_NET *1732 0.0012528
*CONN
*I *1733:Y O *D _1065
*I *1734:A I *L 0
*I *1735:A I *L 0
*I *1736:B I *L 0
*CAP
1 1732_1 0.000288
2 1732_2 3.6e-05
3 1732_3 0.000324
4 1732_4 0.0006048
*RES
1 *1733:Y 1732_1 1
2 1732_1 1732_2 0.125
3 1732_2 *1734:A 0
4 1732_2 1732_3 1.125
5 1732_3 *1735:A 0
6 1732_3 1732_4 3.08571
7 1732_4 *1736:B 0
*END
*D_NET *1737 0.0055656
*CONN
*I *1738:Y O *D _1078
*I *1739:B I *L 0
*I *1740:A I *L 0
*I *1741:A I *L 0
*CAP
1 1737_1 0.0016704
2 1737_2 0.0010368
3 1737_3 0.001872
4 1737_4 0.000252
5 1737_5 0.0007344
*RES
1 *1738:Y 1737_1 6.29286
2 1737_1 1737_2 4.58571
3 1737_2 *1739:B 0
4 1737_1 1737_3 6.5
5 1737_3 1737_4 1.28571
6 1737_4 *1740:A 0
7 1737_3 1737_5 3.04286
8 1737_5 *1741:A 0
*END
*D_NET *1742 0.0013896
*CONN
*I *1743:Y O *D _1091
*I *1744:A I *L 0
*I *1745:C I *L 0
*I *1746:B I *L 0
*CAP
1 1742_1 0.000216
2 1742_2 0.000216
3 1742_3 0.0007056
4 1742_4 0.000252
*RES
1 *1743:Y 1742_1 0.75
2 1742_1 1742_2 0.75
3 1742_2 *1744:A 0
4 1742_1 1742_3 3.6
5 1742_3 *1745:C 0
6 1742_3 1742_4 0.875
7 1742_4 *1746:B 0
*END
*D_NET *1747 0.002268
*CONN
*I *1748:Q O *D _1528
*I *1749:B I *L 0
*I *1750:A I *L 0
*I *1751:C I *L 0
*CAP
1 1747_1 0.0008568
2 1747_2 0.000648
3 1747_3 0.0001008
4 1747_4 0.0005256
5 1747_5 0.0001368
*RES
1 *1748:Q 1747_1 3.55
2 1747_1 1747_2 2.25
3 1747_2 1747_3 0.514286
4 1747_3 *1749:B 0
5 1747_2 1747_4 2.15357
6 1747_4 *1750:A 0
7 1747_1 1747_5 0.639286
8 1747_5 *1751:C 0
*END
*D_NET *1752 0.0018288
*CONN
*I *1753:Y O *D _1114
*I *1754:A I *L 0
*I *1755:A I *L 0
*I *1756:A I *L 0
*CAP
1 1752_1 0.000216
2 1752_2 3.6e-05
3 1752_3 0.000432
4 1752_4 0.00018
5 1752_5 0.0009648
*RES
1 *1753:Y 1752_1 0.75
2 1752_1 1752_2 0.125
3 1752_2 *1754:A 0
4 1752_2 1752_3 1.5
5 1752_3 1752_4 0.625
6 1752_4 *1755:A 0
7 1752_3 1752_5 4.33571
8 1752_5 *1756:A 0
*END
*D_NET *1757 0.0053424
*CONN
*I *1758:Y O *D _1134
*I *1759:B I *L 0
*I *1760:A I *L 0
*I *1761:B I *L 0
*CAP
1 1757_1 0.0007272
2 1757_2 0.0006192
3 1757_3 0.000504
4 1757_4 0.000144
5 1757_5 0.003348
*RES
1 *1758:Y 1757_1 2.77143
2 1757_1 1757_2 2.39643
3 1757_2 *1759:B 0
4 1757_1 1757_3 2.57143
5 1757_3 1757_4 0.5
6 1757_4 *1760:A 0
7 1757_3 1757_5 12.8571
8 1757_5 *1761:B 0
*END
*D_NET *1762 0.0032976
*CONN
*I *1763:Q O *D _1514
*I *1764:A I *L 0
*I *1765:A I *L 0
*I *1766:A I *L 0
*CAP
1 1762_1 0.0014544
2 1762_2 0.000252
3 1762_3 0.00018
4 1762_4 0.0008568
5 1762_5 0.0005544
*RES
1 *1763:Q 1762_1 5.95357
2 1762_1 1762_2 1.28571
3 1762_2 *1764:A 0
4 1762_1 1762_3 0.625
5 1762_3 1762_4 3.96071
6 1762_4 *1765:A 0
7 1762_3 1762_5 2.41786
8 1762_5 *1766:A 0
*END
*D_NET *1767 0.0032184
*CONN
*I *1768:Q O *D _1516
*I *1769:A I *L 0
*I *1770:A I *L 0
*I *1771:A I *L 0
*CAP
1 1767_1 0.0006984
2 1767_2 0.000108
3 1767_3 0.000756
4 1767_4 0.0002016
5 1767_5 0.0014544
*RES
1 *1768:Q 1767_1 3.32857
2 1767_1 1767_2 0.375
3 1767_2 *1769:A 0
4 1767_1 1767_3 3.85714
5 1767_3 1767_4 1.02857
6 1767_4 *1770:A 0
7 1767_3 1767_5 6.36429
8 1767_5 *1771:A 0
*END
*D_NET *1772 0.0037656
*CONN
*I *1773:Q O *D _1519
*I *1774:A I *L 0
*I *1775:A I *L 0
*I *1776:A I *L 0
*CAP
1 1772_1 0.0006696
2 1772_2 0.001548
3 1772_3 0.000756
4 1772_4 0.0002016
5 1772_5 0.0005904
*RES
1 *1773:Q 1772_1 3.06429
2 1772_1 1772_2 7.42857
3 1772_2 *1774:A 0
4 1772_1 1772_3 2.625
5 1772_3 1772_4 1.02857
6 1772_4 *1775:A 0
7 1772_3 1772_5 2.54286
8 1772_5 *1776:A 0
*END
*D_NET *1777 0.0023256
*CONN
*I *1778:Q O *D _1518
*I *1779:A I *L 0
*I *1780:B I *L 0
*I *1781:A I *L 0
*CAP
1 1777_1 0.0001512
2 1777_2 0.0006264
3 1777_3 0.000504
4 1777_4 0.000396
5 1777_5 0.000648
*RES
1 *1778:Q 1777_1 0.771429
2 1777_1 1777_2 2.25714
3 1777_2 1777_3 2.57143
4 1777_3 *1779:A 0
5 1777_2 1777_4 1.78571
6 1777_4 *1780:B 0
7 1777_1 1777_5 3.07143
8 1777_5 *1781:A 0
*END
*D_NET *1782 0.0013536
*CONN
*I *1783:Q O *D _1517
*I *1784:A I *L 0
*I *1785:B I *L 0
*I *1786:A I *L 0
*CAP
1 1782_1 0.000108
2 1782_2 0.0005112
3 1782_3 0.0001512
4 1782_4 0.0005832
*RES
1 *1783:Q 1782_1 0.375
2 1782_1 *1784:A 0
3 1782_1 1782_2 2.02143
4 1782_2 1782_3 0.771429
5 1782_3 *1785:B 0
6 1782_2 1782_4 2.68214
7 1782_4 *1786:A 0
*END
*D_NET *1787 0.0024984
*CONN
*I *1788:Y O *D _1144
*I *1789:C I *L 0
*I *1790:A I *L 0
*I *1791:B I *L 0
*CAP
1 1787_1 0.000108
2 1787_2 0.000684
3 1787_3 3.6e-05
4 1787_4 0.0007488
5 1787_5 0.0009216
*RES
1 *1788:Y 1787_1 0.375
2 1787_1 1787_2 2.375
3 1787_2 1787_3 0.125
4 1787_3 *1789:C 0
5 1787_3 1787_4 3.58571
6 1787_4 *1790:A 0
7 1787_1 1787_5 4.35
8 1787_5 *1791:B 0
*END
*D_NET *1792 0.0030312
*CONN
*I *1793:Y O *D _1153
*I *1794:B I *L 0
*I *1795:A I *L 0
*I *1796:B I *L 0
*CAP
1 1792_1 0.0009864
2 1792_2 0.0002016
3 1792_3 0.000864
4 1792_4 0.0002016
5 1792_5 0.0007776
*RES
1 *1793:Y 1792_1 4.32857
2 1792_1 1792_2 1.02857
3 1792_2 *1794:B 0
4 1792_1 1792_3 3
5 1792_3 1792_4 1.02857
6 1792_4 *1795:A 0
7 1792_3 1792_5 3.43929
8 1792_5 *1796:B 0
*END
*D_NET *1797 0.0021312
*CONN
*I *1798:Y O *D _1171
*I *1799:A I *L 0
*I *1800:A I *L 0
*I *1801:A I *L 0
*CAP
1 1797_1 0.0003672
2 1797_2 0.000108
3 1797_3 0.000504
4 1797_4 0.001152
*RES
1 *1798:Y 1797_1 1.52143
2 1797_1 1797_2 0.375
3 1797_2 *1799:A 0
4 1797_2 1797_3 2.57143
5 1797_3 *1800:A 0
6 1797_1 1797_4 5.23214
7 1797_4 *1801:A 0
*END
*D_NET *1802 0.0029232
*CONN
*I *1803:Y O *D _1172
*I *1804:B I *L 0
*I *1805:B I *L 0
*I *1806:B I *L 0
*CAP
1 1802_1 0.0010656
2 1802_2 0.0004104
3 1802_3 0.0002016
4 1802_4 0.0007488
5 1802_5 0.0004968
*RES
1 *1803:Y 1802_1 4.02857
2 1802_1 1802_2 1.50714
3 1802_2 1802_3 1.02857
4 1802_3 *1804:B 0
5 1802_2 1802_4 3.58571
6 1802_4 *1805:B 0
7 1802_1 1802_5 2.3
8 1802_5 *1806:B 0
*END
*D_NET *1807 0.0021096
*CONN
*I *1808:Y O *D _1177
*I *1809:B I *L 0
*I *1810:A I *L 0
*I *1811:B I *L 0
*CAP
1 1807_1 0.0007488
2 1807_2 0.0002016
3 1807_3 0.000288
4 1807_4 0.0002016
5 1807_5 0.0006696
*RES
1 *1808:Y 1807_1 3.175
2 1807_1 1807_2 1.02857
3 1807_2 *1809:B 0
4 1807_1 1807_3 1
5 1807_3 1807_4 1.02857
6 1807_4 *1810:A 0
7 1807_3 1807_5 3.06429
8 1807_5 *1811:B 0
*END
*D_NET *1812 0.0016848
*CONN
*I *1813:Y O *D _1180
*I *1814:B I *L 0
*I *1815:B I *L 0
*I *1816:A I *L 0
*CAP
1 1812_1 0.000288
2 1812_2 3.6e-05
3 1812_3 0.0008856
4 1812_4 0.0004752
*RES
1 *1813:Y 1812_1 1
2 1812_1 1812_2 0.125
3 1812_2 *1814:B 0
4 1812_2 1812_3 4.225
5 1812_3 *1815:B 0
6 1812_3 1812_4 1.89643
7 1812_4 *1816:A 0
*END
*D_NET *1817 0.005004
*CONN
*I *1818:Y O *D _1185
*I *1819:A I *L 0
*I *1820:A I *L 0
*I *1821:B I *L 0
*CAP
1 1817_1 0.001908
2 1817_2 0.0021744
3 1817_3 0.0009216
*RES
1 *1818:Y 1817_1 9.08929
2 1817_1 *1819:A 0
3 1817_1 1817_2 10.9179
4 1817_2 *1820:A 0
5 1817_2 1817_3 4.35
6 1817_3 *1821:B 0
*END
*D_NET *1822 0.0022248
*CONN
*I *1823:Y O *D _1189
*I *1824:B I *L 0
*I *1825:B I *L 0
*I *1826:B I *L 0
*CAP
1 1822_1 0.0005544
2 1822_2 0.00036
3 1822_3 0.0009504
4 1822_4 3.6e-05
5 1822_5 0.000324
*RES
1 *1823:Y 1822_1 2.82857
2 1822_1 1822_2 1.66071
3 1822_2 *1824:B 0
4 1822_1 1822_3 3.79286
5 1822_3 1822_4 0.125
6 1822_4 *1825:B 0
7 1822_4 1822_5 1.125
8 1822_5 *1826:B 0
*END
*D_NET *1827 0.0015048
*CONN
*I *1828:Y O *D _1193
*I *1829:A I *L 0
*I *1830:B I *L 0
*I *1831:B I *L 0
*CAP
1 1827_1 0.000216
2 1827_2 0.0007416
3 1827_3 0.000108
4 1827_4 0.0004392
*RES
1 *1828:Y 1827_1 0.75
2 1827_1 *1829:A 0
3 1827_1 1827_2 3.725
4 1827_2 1827_3 0.375
5 1827_3 *1830:B 0
6 1827_2 1827_4 1.77143
7 1827_4 *1831:B 0
*END
*D_NET *1832 0.004284
*CONN
*I *1833:Y O *D _1203
*I *1834:C I *L 0
*I *1835:C I *L 0
*I *1836:B I *L 0
*CAP
1 1832_1 0.0001512
2 1832_2 0.0004752
3 1832_3 0.0030312
4 1832_4 0.0006264
*RES
1 *1833:Y 1832_1 0.771429
2 1832_1 1832_2 1.89643
3 1832_2 *1834:C 0
4 1832_1 1832_3 11.5929
5 1832_3 *1835:C 0
6 1832_3 1832_4 2.66786
7 1832_4 *1836:B 0
*END
*D_NET *1837 0.0032832
*CONN
*I *1838:Y O *D _1213
*I *1839:A I *L 0
*I *1840:C I *L 0
*I *1841:B I *L 0
*CAP
1 1837_1 0.0017496
2 1837_2 0.0001512
3 1837_3 0.0003384
4 1837_4 0.0001512
5 1837_5 0.0008928
*RES
1 *1838:Y 1837_1 8.04643
2 1837_1 1837_2 0.771429
3 1837_2 *1839:A 0
4 1837_1 1837_3 1.25714
5 1837_3 1837_4 0.771429
6 1837_4 *1840:C 0
7 1837_3 1837_5 3.42857
8 1837_5 *1841:B 0
*END
*D_NET *1842 0.0028008
*CONN
*I *1843:Y O *D _1228
*I *1844:A I *L 0
*I *1845:B I *L 0
*I *1846:B I *L 0
*CAP
1 1842_1 0.0004392
2 1842_2 0.0004392
3 1842_3 0.000396
4 1842_4 0.0001512
5 1842_5 0.0013752
*RES
1 *1843:Y 1842_1 2.18214
2 1842_1 1842_2 1.77143
3 1842_2 *1844:A 0
4 1842_1 1842_3 1.375
5 1842_3 1842_4 0.771429
6 1842_4 *1845:B 0
7 1842_3 1842_5 5.43214
8 1842_5 *1846:B 0
*END
*D_NET *1847 0.0051984
*CONN
*I *1848:Y O *D _1245
*I *1849:C I *L 0
*I *1850:C I *L 0
*I *1851:C I *L 0
*CAP
1 1847_1 0.0034056
2 1847_2 0.0002016
3 1847_3 0.0005472
4 1847_4 0.0002016
5 1847_5 0.0008424
*RES
1 *1848:Y 1847_1 14.6179
2 1847_1 1847_2 1.02857
3 1847_2 *1849:C 0
4 1847_1 1847_3 2.55714
5 1847_3 1847_4 1.02857
6 1847_4 *1850:C 0
7 1847_3 1847_5 3.82857
8 1847_5 *1851:C 0
*END
*D_NET *1852 0.0017928
*CONN
*I *1853:Y O *D _1253
*I *1854:C I *L 0
*I *1855:A I *L 0
*I *1856:B I *L 0
*CAP
1 1852_1 3.6e-05
2 1852_2 0.000252
3 1852_3 0.000144
4 1852_4 0.0002952
5 1852_5 0.0010656
*RES
1 *1853:Y 1852_1 0.125
2 1852_1 1852_2 0.875
3 1852_2 *1854:C 0
4 1852_1 1852_3 0.5
5 1852_3 1852_4 1.27143
6 1852_4 *1855:A 0
7 1852_3 1852_5 4.02857
8 1852_5 *1856:B 0
*END
*D_NET *1857 0.0060768
*CONN
*I *1858:Y O *D _1260
*I *1859:A I *L 0
*I *1860:C I *L 0
*I *1861:B I *L 0
*CAP
1 1857_1 0.000396
2 1857_2 0.00018
3 1857_3 0.004428
4 1857_4 0.000504
5 1857_5 0.0005688
*RES
1 *1858:Y 1857_1 1.375
2 1857_1 1857_2 0.625
3 1857_2 *1859:A 0
4 1857_1 1857_3 18.6607
5 1857_3 1857_4 2.16071
6 1857_4 *1860:C 0
7 1857_3 1857_5 2.55
8 1857_5 *1861:B 0
*END
*D_NET *1862 0.0030168
*CONN
*I *1863:Y O *D _1261
*I *1864:A I *L 0
*I *1865:A I *L 0
*I *1866:C I *L 0
*CAP
1 1862_1 3.6e-05
2 1862_2 0.0004752
3 1862_3 0.00144
4 1862_4 0.0010656
*RES
1 *1863:Y 1862_1 0.125
2 1862_1 1862_2 1.89643
3 1862_2 *1864:A 0
4 1862_1 1862_3 6.64286
5 1862_3 *1865:A 0
6 1862_3 1862_4 4.02857
7 1862_4 *1866:C 0
*END
*D_NET *1867 0.0028944
*CONN
*I *1868:Y O *D _1275
*I *1869:A I *L 0
*I *1870:B I *L 0
*I *1871:A I *L 0
*CAP
1 1867_1 0.0011664
2 1867_2 0.00018
3 1867_3 0.0009576
4 1867_4 0.0005904
*RES
1 *1868:Y 1867_1 4.95357
2 1867_1 1867_2 0.625
3 1867_2 *1869:A 0
4 1867_1 1867_3 4.88571
5 1867_3 *1870:B 0
6 1867_3 1867_4 2.54286
7 1867_4 *1871:A 0
*END
*D_NET *1872 0.003852
*CONN
*I *1873:Y O *D _1301
*I *1874:B I *L 0
*I *1875:A I *L 0
*I *1876:B I *L 0
*CAP
1 1872_1 0.0002376
2 1872_2 0.0011664
3 1872_3 3.6e-05
4 1872_4 0.000288
5 1872_5 0.002124
*RES
1 *1873:Y 1872_1 1.15357
2 1872_1 1872_2 4.54286
3 1872_2 1872_3 0.125
4 1872_3 *1874:B 0
5 1872_3 1872_4 1
6 1872_4 *1875:A 0
7 1872_1 1872_5 7.78571
8 1872_5 *1876:B 0
*END
*D_NET *1877 0.0027936
*CONN
*I *1878:Y O *D _1331
*I *1879:B I *L 0
*I *1880:B I *L 0
*I *1881:B I *L 0
*CAP
1 1877_1 0.0007632
2 1877_2 0.00018
3 1877_3 0.0008064
4 1877_4 0.001044
*RES
1 *1878:Y 1877_1 3.71786
2 1877_1 1877_2 0.625
3 1877_2 *1879:B 0
4 1877_2 1877_3 4.11429
5 1877_3 *1880:B 0
6 1877_1 1877_4 4.85714
7 1877_4 *1881:B 0
*END
*D_NET *1882 0.0035208
*CONN
*I *1883:Y O *D _1345
*I *1884:A I *L 0
*I *1885:B I *L 0
*I *1886:A I *L 0
*CAP
1 1882_1 0.0002016
2 1882_2 0.0006768
3 1882_3 0.0017856
4 1882_4 0.0001512
5 1882_5 0.0007056
*RES
1 *1883:Y 1882_1 1.02857
2 1882_1 1882_2 2.925
3 1882_2 *1884:A 0
4 1882_1 1882_3 7.35
5 1882_3 1882_4 0.771429
6 1882_4 *1885:B 0
7 1882_3 1882_5 3.6
8 1882_5 *1886:A 0
*END
*D_NET *1887 0.0033624
*CONN
*I *1888:Y O *D _1359
*I *1889:A I *L 0
*I *1890:B I *L 0
*I *1891:A I *L 0
*CAP
1 1887_1 0.0017928
2 1887_2 0.000396
3 1887_3 0.0011736
*RES
1 *1888:Y 1887_1 7.21071
2 1887_1 *1889:A 0
3 1887_1 1887_2 1.375
4 1887_2 *1890:B 0
5 1887_1 1887_3 5.38929
6 1887_3 *1891:A 0
*END
*D_NET *1892 0.0055872
*CONN
*I *1893:Y O *D _1371
*I *1894:B I *L 0
*I *1895:C I *L 0
*I *1896:A I *L 0
*CAP
1 1892_1 0.0003456
2 1892_2 0.0005184
3 1892_3 0.0002016
4 1892_4 0.0007128
5 1892_5 0.0038088
*RES
1 *1893:Y 1892_1 1.52857
2 1892_1 1892_2 1.88214
3 1892_2 1892_3 1.02857
4 1892_3 *1894:B 0
5 1892_2 1892_4 3.46071
6 1892_4 *1895:C 0
7 1892_1 1892_5 17.4964
8 1892_5 *1896:A 0
*END
*D_NET *1897 0.003132
*CONN
*I *1898:Y O *D _1385
*I *1899:A I *L 0
*I *1900:A I *L 0
*I *1901:B I *L 0
*CAP
1 1897_1 0.0016416
2 1897_2 0.000108
3 1897_3 0.0002016
4 1897_4 0.0006192
5 1897_5 0.0005616
*RES
1 *1898:Y 1897_1 6.02857
2 1897_1 1897_2 0.375
3 1897_2 1897_3 1.02857
4 1897_3 *1899:A 0
5 1897_2 1897_4 2.80714
6 1897_4 *1900:A 0
7 1897_1 1897_5 2.68929
8 1897_5 *1901:B 0
*END
*D_NET *1902 0.0030744
*CONN
*I *1903:Y O *D _1401
*I *1904:C I *L 0
*I *1905:B I *L 0
*I *1906:B I *L 0
*CAP
1 1902_1 0.0007128
2 1902_2 0.0001008
3 1902_3 0.001188
4 1902_4 0.0002016
5 1902_5 0.0008712
*RES
1 *1903:Y 1902_1 3.05
2 1902_1 1902_2 0.514286
3 1902_2 *1904:C 0
4 1902_1 1902_3 4.37143
5 1902_3 1902_4 1.02857
6 1902_4 *1905:B 0
7 1902_3 1902_5 3.27143
8 1902_5 *1906:B 0
*END
*D_NET *1907 0.0029808
*CONN
*I *1908:Q O *D _1632
*I *1909:A I *L 0
*I *1910:C I *L 0
*I *1911:A I *L 0
*CAP
1 1907_1 0.000108
2 1907_2 3.6e-05
3 1907_3 0.0015408
4 1907_4 0.001296
*RES
1 *1908:Q 1907_1 0.375
2 1907_1 1907_2 0.125
3 1907_2 *1909:A 0
4 1907_2 1907_3 6.74643
5 1907_3 *1910:C 0
6 1907_3 1907_4 6.14286
7 1907_4 *1911:A 0
*END
*D_NET *1912 0.0028584
*CONN
*I *1913:Q O *D _1631
*I *1914:B I *L 0
*I *1915:A I *L 0
*I *1916:A I *L 0
*CAP
1 1912_1 0.0012888
2 1912_2 0.0001008
3 1912_3 0.0010368
4 1912_4 0.000108
5 1912_5 0.000324
*RES
1 *1913:Q 1912_1 5.37857
2 1912_1 1912_2 0.514286
3 1912_2 *1914:B 0
4 1912_1 1912_3 4.99643
5 1912_3 1912_4 0.375
6 1912_4 *1915:A 0
7 1912_3 1912_5 1.125
8 1912_5 *1916:A 0
*END
*D_NET *1917 0.0030816
*CONN
*I *1918:Y O *D _1565
*I *1919:C I *L 0
*I *1920:A I *L 0
*I *1921:A I *L 0
*CAP
1 1917_1 0.0001512
2 1917_2 0.0005472
3 1917_3 0.0016632
4 1917_4 0.00072
*RES
1 *1918:Y 1917_1 0.771429
2 1917_1 1917_2 2.14643
3 1917_2 *1919:C 0
4 1917_1 1917_3 6.84286
5 1917_3 *1920:A 0
6 1917_3 1917_4 2.82857
7 1917_4 *1921:A 0
*END
*D_NET *1922 0.0033624
*CONN
*I *1923:Q O *D _1630
*I *1924:A I *L 0
*I *1925:A I *L 0
*I *1926:C I *L 0
*CAP
1 1922_1 0.0006624
2 1922_2 0.000288
3 1922_3 0.0002016
4 1922_4 0.0016416
5 1922_5 0.0005688
*RES
1 *1923:Q 1922_1 3.20357
2 1922_1 1922_2 1
3 1922_2 *1924:A 0
4 1922_1 1922_3 1.02857
5 1922_3 1922_4 8.08214
6 1922_4 *1925:A 0
7 1922_3 1922_5 2.13929
8 1922_5 *1926:C 0
*END
*D_NET *1927 0.001296
*CONN
*I *1928:Q O *D _1634
*I *1929:B I *L 0
*I *1930:D I *L 0
*I *1931:A I *L 0
*CAP
1 1927_1 0.00018
2 1927_2 0.000288
3 1927_3 3.6e-05
4 1927_4 0.000288
5 1927_5 0.000504
*RES
1 *1928:Q 1927_1 0.625
2 1927_1 1927_2 1
3 1927_2 1927_3 0.125
4 1927_3 *1929:B 0
5 1927_3 1927_4 1
6 1927_4 *1930:D 0
7 1927_1 1927_5 2.57143
8 1927_5 *1931:A 0
*END
*D_NET *1932 0.0024264
*CONN
*I *1933:Y O *D _1590
*I *1934:C I *L 0
*I *1935:B I *L 0
*I *1936:B I *L 0
*CAP
1 1932_1 0.0011088
2 1932_2 0.0001008
3 1932_3 0.0008568
4 1932_4 0.000144
5 1932_5 0.000216
*RES
1 *1933:Y 1932_1 4.67143
2 1932_1 1932_2 0.514286
3 1932_2 *1934:C 0
4 1932_1 1932_3 3.96071
5 1932_3 1932_4 0.5
6 1932_4 *1935:B 0
7 1932_3 1932_5 0.75
8 1932_5 *1936:B 0
*END
*D_NET *1937 0.00252
*CONN
*I *1938:Y O *D _1592
*I *1939:B I *L 0
*I *1940:A I *L 0
*I *1941:A I *L 0
*CAP
1 1937_1 0.000828
2 1937_2 0.00036
3 1937_3 7.2e-05
4 1937_4 7.2e-05
5 1937_5 0.001188
*RES
1 *1938:Y 1937_1 2.875
2 1937_1 1937_2 1.25
3 1937_2 *1939:B 0
4 1937_1 1937_3 0.25
5 1937_3 1937_4 0.25
6 1937_4 *1940:A 0
7 1937_3 1937_5 4.125
8 1937_5 *1941:A 0
*END
*D_NET *1942 0.0023112
*CONN
*I *1943:Q O *D _1633
*I *1944:B I *L 0
*I *1945:A I *L 0
*I *1946:A I *L 0
*CAP
1 1942_1 0.000396
2 1942_2 3.6e-05
3 1942_3 0.000792
4 1942_4 0.0001008
5 1942_5 0.0009864
*RES
1 *1943:Q 1942_1 1.375
2 1942_1 1942_2 0.125
3 1942_2 *1944:B 0
4 1942_2 1942_3 2.75
5 1942_3 1942_4 0.514286
6 1942_4 *1945:A 0
7 1942_3 1942_5 4.32857
8 1942_5 *1946:A 0
*END
*D_NET *1947 0.0030384
*CONN
*I *1948:Y O *D _1600
*I *1949:A I *L 0
*I *1950:A I *L 0
*I *1951:B I *L 0
*CAP
1 1947_1 0.0013536
2 1947_2 0.000108
3 1947_3 0.0001008
4 1947_4 0.0005328
5 1947_5 0.0009432
*RES
1 *1948:Y 1947_1 6.26071
2 1947_1 1947_2 0.375
3 1947_2 *1949:A 0
4 1947_1 1947_3 0.514286
5 1947_3 1947_4 2.01429
6 1947_4 *1950:A 0
7 1947_3 1947_5 4.34286
8 1947_5 *1951:B 0
*END
*D_NET *1952 0.0025848
*CONN
*I *1953:Y O *D _1613
*I *1954:B I *L 0
*I *1955:B I *L 0
*I *1956:A I *L 0
*CAP
1 1952_1 0.0003672
2 1952_2 0.000108
3 1952_3 0.0013248
4 1952_4 0.0003816
5 1952_5 0.0004032
*RES
1 *1953:Y 1952_1 1.52143
2 1952_1 1952_2 0.375
3 1952_2 *1954:B 0
4 1952_1 1952_3 6.40714
5 1952_3 1952_4 1.65357
6 1952_4 *1955:B 0
7 1952_3 1952_5 2.05714
8 1952_5 *1956:A 0
*END
*D_NET *1957 0.0014472
*CONN
*I *1958:Y O *D _1635
*I *1959:A I *L 0
*I *1960:A I *L 0
*I *1961:B I *L 0
*CAP
1 1957_1 3.6e-05
2 1957_2 0.000252
3 1957_3 3.6e-05
4 1957_4 0.0008712
5 1957_5 0.000252
*RES
1 *1958:Y 1957_1 0.125
2 1957_1 1957_2 0.875
3 1957_2 1957_3 0.125
4 1957_3 *1959:A 0
5 1957_3 1957_4 3.27143
6 1957_4 *1960:A 0
7 1957_1 1957_5 0.875
8 1957_5 *1961:B 0
*END
*D_NET *1962 0.0019944
*CONN
*I *1963:Y O *D _1636
*I *1964:B I *L 0
*I *1965:A I *L 0
*I *1966:A I *L 0
*CAP
1 1962_1 0.0004032
2 1962_2 0.0005472
3 1962_3 0.000792
4 1962_4 0.000108
5 1962_5 0.000144
*RES
1 *1963:Y 1962_1 1.64643
2 1962_1 1962_2 2.14643
3 1962_2 *1964:B 0
4 1962_1 1962_3 3.98214
5 1962_3 1962_4 0.375
6 1962_4 *1965:A 0
7 1962_3 1962_5 0.5
8 1962_5 *1966:A 0
*END
*D_NET *1967 0.0020592
*CONN
*I *1968:Y O *D _1637
*I *1969:B I *L 0
*I *1970:B I *L 0
*I *1971:B I *L 0
*CAP
1 1967_1 3.6e-05
2 1967_2 0.000252
3 1967_3 0.0011376
4 1967_4 0.0002808
5 1967_5 0.0003528
*RES
1 *1968:Y 1967_1 0.125
2 1967_1 1967_2 0.875
3 1967_2 *1969:B 0
4 1967_1 1967_3 4.27857
5 1967_3 1967_4 1.13929
6 1967_4 *1970:B 0
7 1967_3 1967_5 1.8
8 1967_5 *1971:B 0
*END
*D_NET *1972 0.0029664
*CONN
*I *1973:Q O *D _2000
*I *1974:B I *L 0
*I *1975:A I *L 0
*I *1976:A I *L 0
*CAP
1 1972_1 0.0016704
2 1972_2 0.000396
3 1972_3 0.000216
4 1972_4 3.6e-05
5 1972_5 0.000648
*RES
1 *1973:Q 1972_1 8.34643
2 1972_1 1972_2 1.375
3 1972_2 *1974:B 0
4 1972_1 1972_3 0.75
5 1972_3 1972_4 0.125
6 1972_4 *1975:A 0
7 1972_4 1972_5 3.07143
8 1972_5 *1976:A 0
*END
*D_NET *1977 0.0034416
*CONN
*I *1978:Y O *D _1642
*I *1979:A I *L 0
*I *1980:C I *L 0
*I *1981:A I *L 0
*CAP
1 1977_1 0.000648
2 1977_2 0.000108
3 1977_3 0.0023256
4 1977_4 0.00036
*RES
1 *1978:Y 1977_1 2.25
2 1977_1 1977_2 0.375
3 1977_2 *1979:A 0
4 1977_1 1977_3 9.14286
5 1977_3 *1980:C 0
6 1977_3 1977_4 1.25
7 1977_4 *1981:A 0
*END
*D_NET *1982 0.0020016
*CONN
*I *1983:Y O *D _1647
*I *1984:A I *L 0
*I *1985:A I *L 0
*I *1986:B I *L 0
*CAP
1 1982_1 0.0006624
2 1982_2 0.000252
3 1982_3 0.00018
4 1982_4 0.0004104
5 1982_5 0.0004968
*RES
1 *1983:Y 1982_1 2.79286
2 1982_1 1982_2 1.28571
3 1982_2 *1984:A 0
4 1982_1 1982_3 0.625
5 1982_3 1982_4 1.91786
6 1982_4 *1985:A 0
7 1982_3 1982_5 2.3
8 1982_5 *1986:B 0
*END
*D_NET *1987 0.0023256
*CONN
*I *1988:Q O *D _1996
*I *1989:A I *L 0
*I *1990:C I *L 0
*I *1991:B I *L 0
*CAP
1 1987_1 0.0005472
2 1987_2 0.000468
3 1987_3 0.0001512
4 1987_4 0.0007272
5 1987_5 0.000432
*RES
1 *1988:Q 1987_1 2.55714
2 1987_1 1987_2 1.625
3 1987_2 1987_3 0.771429
4 1987_3 *1989:A 0
5 1987_2 1987_4 3.18214
6 1987_4 *1990:C 0
7 1987_1 1987_5 1.91071
8 1987_5 *1991:B 0
*END
*D_NET *1992 0.0047664
*CONN
*I *1993:Y O *D _1664
*I *1994:A I *L 0
*I *1995:C I *L 0
*I *1996:A I *L 0
*CAP
1 1992_1 0.00054
2 1992_2 0.000504
3 1992_3 0.0026856
4 1992_4 0.0003528
5 1992_5 0.000684
*RES
1 *1993:Y 1992_1 2.69643
2 1992_1 1992_2 2.16071
3 1992_2 *1994:A 0
4 1992_1 1992_3 9.65357
5 1992_3 1992_4 1.8
6 1992_4 *1995:C 0
7 1992_3 1992_5 3.19643
8 1992_5 *1996:A 0
*END
*D_NET *1997 0.0015624
*CONN
*I *1998:Y O *D _1672
*I *1999:A I *L 0
*I *2000:A I *L 0
*I *2001:A I *L 0
*CAP
1 1997_1 0.000216
2 1997_2 0.0010584
3 1997_3 3.6e-05
4 1997_4 0.000252
*RES
1 *1998:Y 1997_1 0.75
2 1997_1 *1999:A 0
3 1997_1 1997_2 4.98929
4 1997_2 1997_3 0.125
5 1997_3 *2000:A 0
6 1997_3 1997_4 0.875
7 1997_4 *2001:A 0
*END
*D_NET *2002 0.0024984
*CONN
*I *2003:Y O *D _1678
*I *2004:B I *L 0
*I *2005:A I *L 0
*I *2006:B I *L 0
*CAP
1 2002_1 0.0004896
2 2002_2 0.0003168
3 2002_3 0.0008928
4 2002_4 0.0007992
*RES
1 *2003:Y 2002_1 2.43929
2 2002_1 2002_2 1.26429
3 2002_2 *2004:B 0
4 2002_1 2002_3 3.26429
5 2002_3 *2005:A 0
6 2002_3 2002_4 3.43214
7 2002_4 *2006:B 0
*END
*D_NET *2007 0.002052
*CONN
*I *2008:Q O *D _1990
*I *2009:A I *L 0
*I *2010:A I *L 0
*I *2011:A I *L 0
*CAP
1 2007_1 0.000252
2 2007_2 3.6e-05
3 2007_3 0.0006192
4 2007_4 0.0011448
*RES
1 *2008:Q 2007_1 0.875
2 2007_1 2007_2 0.125
3 2007_2 *2009:A 0
4 2007_2 2007_3 2.39643
5 2007_3 *2010:A 0
6 2007_3 2007_4 5.37143
7 2007_4 *2011:A 0
*END
*D_NET *2012 0.0043992
*CONN
*I *2013:Q O *D _1991
*I *2014:A I *L 0
*I *2015:C I *L 0
*I *2016:B I *L 0
*CAP
1 2012_1 0.0013536
2 2012_2 0.0002376
3 2012_3 0.000108
4 2012_4 0.0002952
5 2012_5 0.0024048
*RES
1 *2013:Q 2012_1 5.02857
2 2012_1 2012_2 1.15357
3 2012_2 2012_3 0.375
4 2012_3 *2014:A 0
5 2012_2 2012_4 1.27143
6 2012_4 *2015:C 0
7 2012_1 2012_5 9.00714
8 2012_5 *2016:B 0
*END
*D_NET *2017 0.0031464
*CONN
*I *2018:Y O *D _1692
*I *2019:A I *L 0
*I *2020:C I *L 0
*I *2021:A I *L 0
*CAP
1 2017_1 0.0007416
2 2017_2 7.2e-05
3 2017_3 0.0004104
4 2017_4 0.0008568
5 2017_5 0.0010656
*RES
1 *2018:Y 2017_1 2.90357
2 2017_1 2017_2 0.25
3 2017_2 *2019:A 0
4 2017_1 2017_3 1.91786
5 2017_3 2017_4 3.55
6 2017_4 *2020:C 0
7 2017_3 2017_5 4.60357
8 2017_5 *2021:A 0
*END
*D_NET *2022 0.0055152
*CONN
*I *2023:Y O *D _1696
*I *2024:A I *L 0
*I *2025:A I *L 0
*I *2026:B I *L 0
*CAP
1 2022_1 0.0027288
2 2022_2 0.001872
3 2022_3 0.0003528
4 2022_4 0.0005616
*RES
1 *2023:Y 2022_1 12.925
2 2022_1 *2024:A 0
3 2022_1 2022_2 9.375
4 2022_2 2022_3 1.8
5 2022_3 *2025:A 0
6 2022_2 2022_4 2.27857
7 2022_4 *2026:B 0
*END
*D_NET *2027 0.0017856
*CONN
*I *2028:Y O *D _1700
*I *2029:A I *L 0
*I *2030:B I *L 0
*I *2031:B I *L 0
*CAP
1 2027_1 3.6e-05
2 2027_2 0.0004392
3 2027_3 0.0007992
4 2027_4 0.0005112
*RES
1 *2028:Y 2027_1 0.125
2 2027_1 2027_2 1.77143
3 2027_2 *2029:A 0
4 2027_2 2027_3 3.43214
5 2027_3 *2030:B 0
6 2027_1 2027_4 2.02143
7 2027_4 *2031:B 0
*END
*D_NET *2032 0.0035496
*CONN
*I *2033:Y O *D _1701
*I *2034:B I *L 0
*I *2035:B I *L 0
*I *2036:B I *L 0
*CAP
1 2032_1 0.0005472
2 2032_2 0.0004032
3 2032_3 0.001008
4 2032_4 0.0006192
5 2032_5 0.000972
*RES
1 *2033:Y 2032_1 2.14643
2 2032_1 2032_2 1.64643
3 2032_2 *2034:B 0
4 2032_1 2032_3 5.14286
5 2032_3 2032_4 2.31429
6 2032_4 *2035:B 0
7 2032_3 2032_5 3.78571
8 2032_5 *2036:B 0
*END
*D_NET *2037 0.0056016
*CONN
*I *2038:Y O *D _1712
*I *2039:A I *L 0
*I *2040:A I *L 0
*I *2041:A I *L 0
*CAP
1 2037_1 0.0009864
2 2037_2 0.0004464
3 2037_3 0.000828
4 2037_4 0.000756
5 2037_5 0.0025848
*RES
1 *2038:Y 2037_1 4.73929
2 2037_1 2037_2 2.04286
3 2037_2 *2039:A 0
4 2037_1 2037_3 2.875
5 2037_3 2037_4 3.85714
6 2037_4 *2040:A 0
7 2037_3 2037_5 9.96071
8 2037_5 *2041:A 0
*END
*D_NET *2042 0.0027432
*CONN
*I *2043:Y O *D _1716
*I *2044:A I *L 0
*I *2045:A I *L 0
*I *2046:B I *L 0
*CAP
1 2042_1 0.0006192
2 2042_2 0.0006552
3 2042_3 0.0004032
4 2042_4 0.0004824
5 2042_5 0.0005832
*RES
1 *2043:Y 2042_1 2.39643
2 2042_1 2042_2 3.34286
3 2042_2 *2044:A 0
4 2042_1 2042_3 2.05714
5 2042_3 2042_4 2.16786
6 2042_4 *2045:A 0
7 2042_3 2042_5 2.68214
8 2042_5 *2046:B 0
*END
*D_NET *2047 0.0035064
*CONN
*I *2048:Q O *D _1972
*I *2049:A I *L 0
*I *2050:A I *L 0
*I *2051:A I *L 0
*CAP
1 2047_1 0.0004392
2 2047_2 0.0002592
3 2047_3 0.0025272
4 2047_4 0.0001008
5 2047_5 0.00018
*RES
1 *2048:Q 2047_1 1.77143
2 2047_1 2047_2 1.14643
3 2047_2 *2049:A 0
4 2047_1 2047_3 11.4857
5 2047_3 2047_4 0.514286
6 2047_4 *2050:A 0
7 2047_3 2047_5 0.625
8 2047_5 *2051:A 0
*END
*D_NET *2052 0.0022032
*CONN
*I *2053:Q O *D _1984
*I *2054:A I *L 0
*I *2055:A I *L 0
*I *2056:C I *L 0
*CAP
1 2052_1 0.0003024
2 2052_2 0.0003744
3 2052_3 0.000252
4 2052_4 0.000684
5 2052_5 0.0005904
*RES
1 *2053:Q 2052_1 1.54286
2 2052_1 2052_2 1.38214
3 2052_2 2052_3 1.28571
4 2052_3 *2054:A 0
5 2052_2 2052_4 3.19643
6 2052_4 *2055:A 0
7 2052_1 2052_5 2.54286
8 2052_5 *2056:C 0
*END
*D_NET *2057 0.003348
*CONN
*I *2058:Y O *D _1737
*I *2059:A I *L 0
*I *2060:B I *L 0
*I *2061:B I *L 0
*CAP
1 2057_1 0.0005328
2 2057_2 0.0003024
3 2057_3 0.000144
4 2057_4 0.0009576
5 2057_5 0.0014112
*RES
1 *2058:Y 2057_1 2.425
2 2057_1 2057_2 1.54286
3 2057_2 *2059:A 0
4 2057_1 2057_3 0.5
5 2057_3 2057_4 4.06429
6 2057_4 *2060:B 0
7 2057_3 2057_5 6.78929
8 2057_5 *2061:B 0
*END
*D_NET *2062 0.0043632
*CONN
*I *2063:Q O *D _1977
*I *2064:A I *L 0
*I *2065:A I *L 0
*I *2066:B I *L 0
*CAP
1 2062_1 0.0001512
2 2062_2 0.002664
3 2062_3 0.00036
4 2062_4 0.0007128
5 2062_5 0.0004752
*RES
1 *2063:Q 2062_1 0.771429
2 2062_1 2062_2 12.2893
3 2062_2 2062_3 1.66071
4 2062_3 *2064:A 0
5 2062_2 2062_4 3.21429
6 2062_4 *2065:A 0
7 2062_1 2062_5 1.89643
8 2062_5 *2066:B 0
*END
*D_NET *2067 0.0021168
*CONN
*I *2068:Y O *D _1740
*I *2069:C I *L 0
*I *2070:B I *L 0
*I *2071:A I *L 0
*CAP
1 2067_1 3.6e-05
2 2067_2 0.000216
3 2067_3 0.0002664
4 2067_4 0.0002592
5 2067_5 0.0013392
*RES
1 *2068:Y 2067_1 0.125
2 2067_1 2067_2 0.75
3 2067_2 *2069:C 0
4 2067_1 2067_3 1.00714
5 2067_3 2067_4 1.14643
6 2067_4 *2070:B 0
7 2067_3 2067_5 5.30714
8 2067_5 *2071:A 0
*END
*D_NET *2072 0.0055224
*CONN
*I *2073:Y O *D _1743
*I *2074:B I *L 0
*I *2075:C I *L 0
*I *2076:C I *L 0
*CAP
1 2072_1 0.0035784
2 2072_2 0.0001008
3 2072_3 0.0004104
4 2072_4 0.0001512
5 2072_5 0.0012816
*RES
1 *2073:Y 2072_1 15.7929
2 2072_1 2072_2 0.514286
3 2072_2 *2074:B 0
4 2072_1 2072_3 1.50714
5 2072_3 2072_4 0.771429
6 2072_4 *2075:C 0
7 2072_3 2072_5 5.6
8 2072_5 *2076:C 0
*END
*D_NET *2077 0.0045792
*CONN
*I *2078:Y O *D _1752
*I *2079:A I *L 0
*I *2080:B I *L 0
*I *2081:A I *L 0
*CAP
1 2077_1 0.0019152
2 2077_2 0.0001512
3 2077_3 0.0019584
4 2077_4 0.0002016
5 2077_5 0.0003528
*RES
1 *2078:Y 2077_1 6.89643
2 2077_1 2077_2 0.771429
3 2077_2 *2079:A 0
4 2077_1 2077_3 6.88214
5 2077_3 2077_4 1.02857
6 2077_4 *2080:B 0
7 2077_3 2077_5 1.8
8 2077_5 *2081:A 0
*END
*D_NET *2082 0.0026136
*CONN
*I *2083:Y O *D _1753
*I *2084:A I *L 0
*I *2085:A I *L 0
*I *2086:A I *L 0
*CAP
1 2082_1 0.0004536
2 2082_2 0.0005328
3 2082_3 0.0013392
4 2082_4 0.000288
*RES
1 *2083:Y 2082_1 2.31429
2 2082_1 2082_2 2.01429
3 2082_2 *2084:A 0
4 2082_1 2082_3 6.12857
5 2082_3 *2085:A 0
6 2082_1 2082_4 1
7 2082_4 *2086:A 0
*END
*D_NET *2087 0.0019512
*CONN
*I *2088:Y O *D _1770
*I *2089:B I *L 0
*I *2090:A I *L 0
*I *2091:B I *L 0
*CAP
1 2087_1 0.0005112
2 2087_2 0.0006048
3 2087_3 0.000396
4 2087_4 0.0004392
*RES
1 *2088:Y 2087_1 2.02143
2 2087_1 *2089:B 0
3 2087_1 2087_2 3.08571
4 2087_2 2087_3 1.78571
5 2087_3 *2090:A 0
6 2087_2 2087_4 1.77143
7 2087_4 *2091:B 0
*END
*D_NET *2092 0.0016992
*CONN
*I *2093:Y O *D _1786
*I *2094:A I *L 0
*I *2095:B I *L 0
*I *2096:A I *L 0
*CAP
1 2092_1 3.6e-05
2 2092_2 0.0004392
3 2092_3 3.6e-05
4 2092_4 0.00036
5 2092_5 0.000828
*RES
1 *2093:Y 2092_1 0.125
2 2092_1 2092_2 1.77143
3 2092_2 2092_3 0.125
4 2092_3 *2094:A 0
5 2092_3 2092_4 1.25
6 2092_4 *2095:B 0
7 2092_1 2092_5 3.36786
8 2092_5 *2096:A 0
*END
*D_NET *2097 0.0022032
*CONN
*I *2098:Y O *D _1792
*I *2099:B I *L 0
*I *2100:B I *L 0
*I *2101:A I *L 0
*CAP
1 2097_1 0.000432
2 2097_2 0.0007992
3 2097_3 0.0001512
4 2097_4 0.0008208
*RES
1 *2098:Y 2097_1 1.5
2 2097_1 *2099:B 0
3 2097_1 2097_2 3.02143
4 2097_2 2097_3 0.771429
5 2097_3 *2100:B 0
6 2097_2 2097_4 3.83571
7 2097_4 *2101:A 0
*END
*D_NET *2102 0.005436
*CONN
*I *2103:Y O *D _1796
*I *2104:A I *L 0
*I *2105:A I *L 0
*I *2106:A I *L 0
*CAP
1 2102_1 0.0003312
2 2102_2 0.0014616
3 2102_3 0.000252
4 2102_4 0.0017928
5 2102_5 0.0015984
*RES
1 *2103:Y 2102_1 1.39643
2 2102_1 2102_2 5.40357
3 2102_2 2102_3 1.28571
4 2102_3 *2104:A 0
5 2102_2 2102_4 8.44286
6 2102_4 *2105:A 0
7 2102_1 2102_5 7.68571
8 2102_5 *2106:A 0
*END
*D_NET *2107 0.0015552
*CONN
*I *2108:Y O *D _1802
*I *2109:A I *L 0
*I *2110:A I *L 0
*I *2111:B I *L 0
*CAP
1 2107_1 3.6e-05
2 2107_2 0.000504
3 2107_3 3.6e-05
4 2107_4 0.000504
5 2107_5 0.0004752
*RES
1 *2108:Y 2107_1 0.125
2 2107_1 2107_2 1.75
3 2107_2 2107_3 0.125
4 2107_3 *2109:A 0
5 2107_3 2107_4 1.75
6 2107_4 *2110:A 0
7 2107_1 2107_5 1.89643
8 2107_5 *2111:B 0
*END
*D_NET *2112 0.002556
*CONN
*I *2113:Y O *D _1809
*I *2114:A I *L 0
*I *2115:A I *L 0
*I *2116:B I *L 0
*CAP
1 2112_1 0.0008784
2 2112_2 0.000252
3 2112_3 0.000324
4 2112_4 0.0003024
5 2112_5 0.0007992
*RES
1 *2113:Y 2112_1 3.54286
2 2112_1 2112_2 1.28571
3 2112_2 *2114:A 0
4 2112_1 2112_3 1.125
5 2112_3 2112_4 1.54286
6 2112_4 *2115:A 0
7 2112_3 2112_5 3.43214
8 2112_5 *2116:B 0
*END
*D_NET *2117 0.0039888
*CONN
*I *2118:Y O *D _1821
*I *2119:C I *L 0
*I *2120:C I *L 0
*I *2121:C I *L 0
*CAP
1 2117_1 0.001836
2 2117_2 0.0002448
3 2117_3 0.001656
4 2117_4 0.000108
5 2117_5 0.000144
*RES
1 *2118:Y 2117_1 8.83929
2 2117_1 2117_2 1.01429
3 2117_2 *2119:C 0
4 2117_1 2117_3 8.21429
5 2117_3 2117_4 0.375
6 2117_4 *2120:C 0
7 2117_3 2117_5 0.5
8 2117_5 *2121:C 0
*END
*D_NET *2122 0.0050112
*CONN
*I *2123:Y O *D _1823
*I *2124:B I *L 0
*I *2125:B I *L 0
*I *2126:B I *L 0
*CAP
1 2122_1 0.0009576
2 2122_2 0.0003672
3 2122_3 0.0022536
4 2122_4 0.0014328
*RES
1 *2123:Y 2122_1 4.475
2 2122_1 2122_2 1.52143
3 2122_2 *2124:B 0
4 2122_1 2122_3 11.0286
5 2122_3 *2125:B 0
6 2122_3 2122_4 6.37143
7 2122_4 *2126:B 0
*END
*D_NET *2127 0.00234
*CONN
*I *2128:Y O *D _1825
*I *2129:B I *L 0
*I *2130:A I *L 0
*I *2131:B I *L 0
*CAP
1 2127_1 0.000936
2 2127_2 0.0001512
3 2127_3 0.000216
4 2127_4 0.0003528
5 2127_5 0.000684
*RES
1 *2128:Y 2127_1 3.66071
2 2127_1 2127_2 0.771429
3 2127_2 *2129:B 0
4 2127_1 2127_3 0.75
5 2127_3 2127_4 1.8
6 2127_4 *2130:A 0
7 2127_3 2127_5 2.78571
8 2127_5 *2131:B 0
*END
*D_NET *2132 0.0039528
*CONN
*I *2133:Y O *D _1837
*I *2134:C I *L 0
*I *2135:A I *L 0
*I *2136:A I *L 0
*CAP
1 2132_1 0.0017064
2 2132_2 0.00108
3 2132_3 0.0003528
4 2132_4 0.0008136
*RES
1 *2133:Y 2132_1 6.41786
2 2132_1 2132_2 4.98214
3 2132_2 *2134:C 0
4 2132_1 2132_3 1.8
5 2132_3 *2135:A 0
6 2132_1 2132_4 3.56429
7 2132_4 *2136:A 0
*END
*D_NET *2137 0.0029664
*CONN
*I *2138:Q O *D _1964
*I *2139:A I *L 0
*I *2140:D I *L 0
*I *2141:B I *L 0
*CAP
1 2137_1 0.0001008
2 2137_2 0.0004536
3 2137_3 0.0012888
4 2137_4 0.000144
5 2137_5 0.0009792
*RES
1 *2138:Q 2137_1 0.514286
2 2137_1 2137_2 2.31429
3 2137_2 *2139:A 0
4 2137_1 2137_3 5.87143
5 2137_3 2137_4 0.5
6 2137_4 *2140:D 0
7 2137_3 2137_5 4.46786
8 2137_5 *2141:B 0
*END
*D_NET *2142 0.0031608
*CONN
*I *2143:Y O *D _1864
*I *2144:A I *L 0
*I *2145:B I *L 0
*I *2146:D I *L 0
*CAP
1 2142_1 0.00036
2 2142_2 0.001008
3 2142_3 0.000396
4 2142_4 0.0013968
*RES
1 *2143:Y 2142_1 1.25
2 2142_1 *2144:A 0
3 2142_1 2142_2 4.32143
4 2142_2 2142_3 1.78571
5 2142_3 *2145:B 0
6 2142_2 2142_4 6.24643
7 2142_4 *2146:D 0
*END
*D_NET *2147 0.008496
*CONN
*I *2148:Y O *D _1876
*I *2149:A I *L 0
*I *2150:B I *L 0
*I *2151:C I *L 0
*CAP
1 2147_1 0.0023184
2 2147_2 0.0053712
3 2147_3 0.0008064
*RES
1 *2148:Y 2147_1 9.36429
2 2147_1 *2149:A 0
3 2147_1 2147_2 20.1286
4 2147_2 *2150:B 0
5 2147_2 2147_3 3.70357
6 2147_3 *2151:C 0
*END
*D_NET *2152 0.0076968
*CONN
*I *2153:Y O *D _1883
*I *2154:B I *L 0
*I *2155:A I *L 0
*I *2156:A I *L 0
*CAP
1 2152_1 0.000324
2 2152_2 3.6e-05
3 2152_3 0.0013176
4 2152_4 0.001008
5 2152_5 0.0050112
*RES
1 *2153:Y 2152_1 1.125
2 2152_1 2152_2 0.125
3 2152_2 *2154:B 0
4 2152_2 2152_3 6.13571
5 2152_3 2152_4 4.73214
6 2152_4 *2155:A 0
7 2152_3 2152_5 20.1107
8 2152_5 *2156:A 0
*END
*D_NET *2157 0.0023112
*CONN
*I *2158:Y O *D _902
*I *2159:B I *L 0
*I *2160:B I *L 0
*I *2161:B I *L 0
*CAP
1 2157_1 0.0002952
2 2157_2 0.000144
3 2157_3 3.6e-05
4 2157_4 0.000324
5 2157_5 0.001512
*RES
1 *2158:Y 2157_1 1.27143
2 2157_1 2157_2 0.5
3 2157_2 2157_3 0.125
4 2157_3 *2159:B 0
5 2157_3 2157_4 1.125
6 2157_4 *2160:B 0
7 2157_1 2157_5 7.71429
8 2157_5 *2161:B 0
*END
*D_NET *2162 0.0024552
*CONN
*I *2163:Y O *D _909
*I *2164:B I *L 0
*I *2165:A I *L 0
*I *2166:A I *L 0
*CAP
1 2162_1 0.0005472
2 2162_2 0.0007776
3 2162_3 0.0001512
4 2162_4 0.0009792
*RES
1 *2163:Y 2162_1 2.14643
2 2162_1 *2164:B 0
3 2162_1 2162_2 3.43929
4 2162_2 2162_3 0.771429
5 2162_3 *2165:A 0
6 2162_2 2162_4 4.05714
7 2162_4 *2166:A 0
*END
*D_NET *2167 0.0075384
*CONN
*I *2168:Y O *D _911
*I *2169:B I *L 0
*I *2170:B I *L 0
*I *2171:C I *L 0
*CAP
1 2167_1 0.0002952
2 2167_2 0.000684
3 2167_3 0.0003528
4 2167_4 0.0048168
5 2167_5 0.0013896
*RES
1 *2168:Y 2167_1 1.27143
2 2167_1 2167_2 2.375
3 2167_2 2167_3 1.8
4 2167_3 *2169:B 0
5 2167_2 2167_4 18.9429
6 2167_4 *2170:B 0
7 2167_1 2167_5 6.79643
8 2167_5 *2171:C 0
*END
*D_NET *2172 0.0023904
*CONN
*I *2173:Y O *D _931
*I *2174:B I *L 0
*I *2175:C I *L 0
*I *2176:C I *L 0
*CAP
1 2172_1 3.6e-05
2 2172_2 0.000252
3 2172_3 0.000144
4 2172_4 0.000216
5 2172_5 0.0017424
*RES
1 *2173:Y 2172_1 0.125
2 2172_1 2172_2 0.875
3 2172_2 *2174:B 0
4 2172_1 2172_3 0.5
5 2172_3 2172_4 0.75
6 2172_4 *2175:C 0
7 2172_3 2172_5 8.18571
8 2172_5 *2176:C 0
*END
*D_NET *2177 0.0019296
*CONN
*I *2178:Y O *D _999
*I *2179:A I *L 0
*I *2180:C I *L 0
*CAP
1 2177_1 0.0011016
2 2177_2 0.000576
3 2177_3 0.000252
*RES
1 *2178:Y 2177_1 5.38571
2 2177_1 2177_2 2
3 2177_2 *2179:A 0
4 2177_1 2177_3 0.875
5 2177_3 *2180:C 0
*END
*D_NET *2181 0.003492
*CONN
*I *2182:Q O *D _1025
*I *2183:C I *L 0
*I *2184:A I *L 0
*CAP
1 2181_1 0.0003528
2 2181_2 0.0009504
3 2181_3 0.0021888
*RES
1 *2182:Q 2181_1 1.8
2 2181_1 2181_2 3.79286
3 2181_2 *2183:C 0
4 2181_1 2181_3 9.40714
5 2181_3 *2184:A 0
*END
*D_NET *2185 0.0012312
*CONN
*I *2186:Y O *D _922
*I *2187:A I *L 0
*I *2188:A I *L 0
*CAP
1 2185_1 0.0002448
2 2185_2 0.0004536
3 2185_3 0.0005328
*RES
1 *2186:Y 2185_1 1.01429
2 2185_1 2185_2 2.31429
3 2185_2 *2187:A 0
4 2185_1 2185_3 2.425
5 2185_3 *2188:A 0
*END
*D_NET *2189 0.0019512
*CONN
*I *2190:Y O *D _903
*I *2191:B I *L 0
*I *2192:B I *L 0
*CAP
1 2189_1 0.001044
2 2189_2 0.0004608
3 2189_3 0.0004464
*RES
1 *2190:Y 2189_1 4.03571
2 2189_1 2189_2 2.175
3 2189_2 *2191:B 0
4 2189_1 2189_3 2.04286
5 2189_3 *2192:B 0
*END
*D_NET *2193 0.0010656
*CONN
*I *2194:Y O *D _901
*I *2195:A I *L 0
*I *2196:A I *L 0
*CAP
1 2193_1 0.0005976
2 2193_2 0.000252
3 2193_3 0.000216
*RES
1 *2194:Y 2193_1 2.40357
2 2193_1 2193_2 1.28571
3 2193_2 *2195:A 0
4 2193_1 2193_3 0.75
5 2193_3 *2196:A 0
*END
*D_NET *2197 0.0034632
*CONN
*I *2198:Q O *D _1011
*I *2199:A I *L 0
*I *2200:A I *L 0
*CAP
1 2197_1 0.0002376
2 2197_2 0.0007056
3 2197_3 0.00252
*RES
1 *2198:Q 2197_1 1.15357
2 2197_1 2197_2 3.18929
3 2197_2 *2199:A 0
4 2197_1 2197_3 10.3929
5 2197_3 *2200:A 0
*END
*D_NET *2201 0.0023472
*CONN
*I *2202:Q O *D _1014
*I *2203:A I *L 0
*I *2204:C I *L 0
*CAP
1 2201_1 0.0001872
2 2201_2 0.0010512
3 2201_3 0.0011088
*RES
1 *2202:Q 2201_1 0.896429
2 2201_1 2201_2 4.30714
3 2201_2 *2203:A 0
4 2201_1 2201_3 4.425
5 2201_3 *2204:C 0
*END
*D_NET *2205 0.0016272
*CONN
*I *2206:Q O *D _1016
*I *2207:A I *L 0
*I *2208:A I *L 0
*CAP
1 2205_1 0.0014832
2 2205_2 0.000144
*RES
1 *2206:Q 2205_1 6.21786
2 2205_1 *2207:A 0
3 2205_1 2205_2 0.5
4 2205_2 *2208:A 0
*END
*D_NET *2209 0.0018792
*CONN
*I *2210:Q O *D _1017
*I *2211:A I *L 0
*I *2212:A I *L 0
*CAP
1 2209_1 3.6e-05
2 2209_2 0.0007632
3 2209_3 0.00108
*RES
1 *2210:Q 2209_1 0.125
2 2209_1 2209_2 2.89643
3 2209_2 *2211:A 0
4 2209_1 2209_3 3.75
5 2209_3 *2212:A 0
*END
*D_NET *2213 0.0040536
*CONN
*I *2214:Q O *D _1018
*I *2215:A I *L 0
*I *2216:C I *L 0
*CAP
1 2213_1 0.000108
2 2213_2 0.0004752
3 2213_3 0.0034704
*RES
1 *2214:Q 2213_1 0.375
2 2213_1 2213_2 1.89643
3 2213_2 *2215:A 0
4 2213_1 2213_3 14.1857
5 2213_3 *2216:C 0
*END
*D_NET *2217 0.0026136
*CONN
*I *2218:Q O *D _1024
*I *2219:C I *L 0
*I *2220:C I *L 0
*CAP
1 2217_1 0.0007416
2 2217_2 0.0005832
3 2217_3 0.0012888
*RES
1 *2218:Q 2217_1 3.725
2 2217_1 2217_2 2.27143
3 2217_2 *2219:C 0
4 2217_1 2217_3 5.46071
5 2217_3 *2220:C 0
*END
*D_NET *2221 0.0136368
*CONN
*I *2222:Y O *D _1033
*I *2223:A I *L 0
*I *2224:A I *L 0
*CAP
1 2221_1 0.000288
2 2221_2 0.00216
3 2221_3 0.0111888
*RES
1 *2222:Y 2221_1 1.41071
2 2221_1 2221_2 7.91071
3 2221_2 *2223:A 0
4 2221_1 2221_3 45.175
5 2221_3 *2224:A 0
*END
*D_NET *2225 0.0058032
*CONN
*I *2226:Y O *D _1899
*I *2227:A I *L 0
*I *2228:A I *L 0
*CAP
1 2225_1 0.0037224
2 2225_2 0.0001008
3 2225_3 0.00198
*RES
1 *2226:Y 2225_1 17.525
2 2225_1 2225_2 0.514286
3 2225_2 *2227:A 0
4 2225_1 2225_3 9.33929
5 2225_3 *2228:A 0
*END
*D_NET *2229 0.00162
*CONN
*I *2230:Y O *D _1046
*I *2231:A I *L 0
*I *2232:C I *L 0
*CAP
1 2229_1 0.0005688
2 2229_2 0.000252
3 2229_3 0.0007992
*RES
1 *2230:Y 2229_1 2.55
2 2229_1 2229_2 1.28571
3 2229_2 *2231:A 0
4 2229_1 2229_3 3.84286
5 2229_3 *2232:C 0
*END
*D_NET *2233 0.0022104
*CONN
*I *2234:Y O *D _1902
*I *2235:A I *L 0
*I *2236:A I *L 0
*CAP
1 2233_1 0.0017424
2 2233_2 0.000252
3 2233_3 0.000216
*RES
1 *2234:Y 2233_1 7.36429
2 2233_1 2233_2 1.28571
3 2233_2 *2235:A 0
4 2233_1 2233_3 0.75
5 2233_3 *2236:A 0
*END
*D_NET *2237 0.00396
*CONN
*I *2238:Y O *D _1052
*I *2239:A I *L 0
*I *2240:B I *L 0
*CAP
1 2237_1 0.0018864
2 2237_2 0.0020736
*RES
1 *2238:Y 2237_1 9.09643
2 2237_1 *2239:A 0
3 2237_1 2237_2 9.5
4 2237_2 *2240:B 0
*END
*D_NET *2241 0.003096
*CONN
*I *2242:Y O *D _1053
*I *2243:C I *L 0
*I *2244:B I *L 0
*CAP
1 2241_1 3.6e-05
2 2241_2 0.000576
3 2241_3 0.002484
*RES
1 *2242:Y 2241_1 0.125
2 2241_1 2241_2 2
3 2241_2 *2243:C 0
4 2241_1 2241_3 10.6786
5 2241_3 *2244:B 0
*END
*D_NET *2245 0.0031608
*CONN
*I *2246:Y O *D _1054
*I *2247:C I *L 0
*I *2248:A I *L 0
*CAP
1 2245_1 0.0006696
2 2245_2 0.0007056
3 2245_3 0.0017856
*RES
1 *2246:Y 2245_1 3.06429
2 2245_1 2245_2 3.18929
3 2245_2 *2247:C 0
4 2245_1 2245_3 6.85714
5 2245_3 *2248:A 0
*END
*D_NET *2249 0.001836
*CONN
*I *2250:Y O *D _1060
*I *2251:A I *L 0
*I *2252:C I *L 0
*CAP
1 2249_1 0.0012744
2 2249_2 0.0002016
3 2249_3 0.00036
*RES
1 *2250:Y 2249_1 5.32857
2 2249_1 2249_2 1.02857
3 2249_2 *2251:A 0
4 2249_1 2249_3 1.25
5 2249_3 *2252:C 0
*END
*D_NET *2253 0.0032256
*CONN
*I *2254:Y O *D _1061
*I *2255:C I *L 0
*I *2256:C I *L 0
*CAP
1 2253_1 0.0006552
2 2253_2 0.0004968
3 2253_3 0.0020736
*RES
1 *2254:Y 2253_1 3.34286
2 2253_1 2253_2 1.88929
3 2253_2 *2255:C 0
4 2253_1 2253_3 8.76071
5 2253_3 *2256:C 0
*END
*D_NET *2257 0.0012024
*CONN
*I *2258:Y O *D _1903
*I *2259:A I *L 0
*I *2260:A I *L 0
*CAP
1 2257_1 0.000216
2 2257_2 0.0009864
*RES
1 *2258:Y 2257_1 0.75
2 2257_1 *2259:A 0
3 2257_1 2257_2 4.73929
4 2257_2 *2260:A 0
*END
*D_NET *2261 0.001764
*CONN
*I *2262:Y O *D _1066
*I *2263:B I *L 0
*I *2264:C I *L 0
*CAP
1 2261_1 0.0002016
2 2261_2 0.0007344
3 2261_3 0.000828
*RES
1 *2262:Y 2261_1 1.02857
2 2261_1 2261_2 3.45357
3 2261_2 *2263:B 0
4 2261_1 2261_3 3.69643
5 2261_3 *2264:C 0
*END
*D_NET *2265 0.0053856
*CONN
*I *2266:Y O *D _1071
*I *2267:C I *L 0
*I *2268:A I *L 0
*CAP
1 2265_1 3.6e-05
2 2265_2 0.0016488
3 2265_3 0.0037008
*RES
1 *2266:Y 2265_1 0.125
2 2265_1 2265_2 7.12143
3 2265_2 *2267:C 0
4 2265_1 2265_3 17.1214
5 2265_3 *2268:A 0
*END
*D_NET *2269 0.0020016
*CONN
*I *2270:Y O *D _1096
*I *2271:A I *L 0
*I *2272:B I *L 0
*CAP
1 2269_1 0.0003888
2 2269_2 0.0003816
3 2269_3 0.0012312
*RES
1 *2270:Y 2269_1 1.925
2 2269_1 2269_2 1.65357
3 2269_2 *2271:A 0
4 2269_1 2269_3 4.93214
5 2269_3 *2272:B 0
*END
*D_NET *2273 0.000576
*CONN
*I *2274:Y O *D _1097
*I *2275:A I *L 0
*I *2276:C I *L 0
*CAP
1 2273_1 3.6e-05
2 2273_2 0.000252
3 2273_3 0.000288
*RES
1 *2274:Y 2273_1 0.125
2 2273_1 2273_2 0.875
3 2273_2 *2275:A 0
4 2273_1 2273_3 1
5 2273_3 *2276:C 0
*END
*D_NET *2277 0.002052
*CONN
*I *2278:Y O *D _1100
*I *2279:B I *L 0
*I *2280:A I *L 0
*CAP
1 2277_1 0.00036
2 2277_2 0.001692
*RES
1 *2278:Y 2277_1 1.25
2 2277_1 *2279:B 0
3 2277_1 2277_2 7.10714
4 2277_2 *2280:A 0
*END
*D_NET *2281 0.0025056
*CONN
*I *2282:Y O *D _1108
*I *2283:B I *L 0
*I *2284:B I *L 0
*CAP
1 2281_1 0.0019656
2 2281_2 0.00018
3 2281_3 0.00036
*RES
1 *2282:Y 2281_1 8.38571
2 2281_1 2281_2 0.625
3 2281_2 *2283:B 0
4 2281_1 2281_3 1.41429
5 2281_3 *2284:B 0
*END
*D_NET *2285 0.001764
*CONN
*I *2286:Y O *D _1115
*I *2287:A I *L 0
*I *2288:B I *L 0
*CAP
1 2285_1 0.0001944
2 2285_2 0.0003312
3 2285_3 0.0012384
*RES
1 *2286:Y 2285_1 0.757143
2 2285_1 2285_2 1.39643
3 2285_2 *2287:A 0
4 2285_1 2285_3 6.025
5 2285_3 *2288:B 0
*END
*D_NET *2289 0.004212
*CONN
*I *2290:Y O *D _1118
*I *2291:B I *L 0
*I *2292:A I *L 0
*CAP
1 2289_1 0.0030024
2 2289_2 0.0003024
3 2289_3 0.0009072
*RES
1 *2290:Y 2289_1 11.3286
2 2289_1 2289_2 1.54286
3 2289_2 *2291:B 0
4 2289_1 2289_3 3.39643
5 2289_3 *2292:A 0
*END
*D_NET *2293 0.0033264
*CONN
*I *2294:Y O *D _1123
*I *2295:A I *L 0
*I *2296:C I *L 0
*CAP
1 2293_1 0.0022104
2 2293_2 0.000252
3 2293_3 0.000864
*RES
1 *2294:Y 2293_1 10.6321
2 2293_1 2293_2 1.28571
3 2293_2 *2295:A 0
4 2293_1 2293_3 3.41071
5 2293_3 *2296:C 0
*END
*D_NET *2297 0.0034632
*CONN
*I *2298:Y O *D _1135
*I *2299:B I *L 0
*I *2300:B I *L 0
*CAP
1 2297_1 0.0024336
2 2297_2 0.0004824
3 2297_3 0.0005472
*RES
1 *2298:Y 2297_1 9.18929
2 2297_1 2297_2 2.16786
3 2297_2 *2299:B 0
4 2297_1 2297_3 2.55714
5 2297_3 *2300:B 0
*END
*D_NET *2301 0.0019944
*CONN
*I *2302:Q O *D _1513
*I *2303:A I *L 0
*I *2304:B I *L 0
*CAP
1 2301_1 0.001368
2 2301_2 0.0003672
3 2301_3 0.0002592
*RES
1 *2302:Q 2301_1 6.80357
2 2301_1 2301_2 1.52143
3 2301_2 *2303:A 0
4 2301_1 2301_3 1.14643
5 2301_3 *2304:B 0
*END
*D_NET *2305 0.0021024
*CONN
*I *2306:Q O *D _1515
*I *2307:A I *L 0
*I *2308:A I *L 0
*CAP
1 2305_1 0.0013968
2 2305_2 0.0006048
3 2305_3 0.0001008
*RES
1 *2306:Q 2305_1 6.65714
2 2305_1 2305_2 3.08571
3 2305_2 *2307:A 0
4 2305_1 2305_3 0.514286
5 2305_3 *2308:A 0
*END
*D_NET *2309 0.0036072
*CONN
*I *2310:Y O *D _1137
*I *2311:A I *L 0
*I *2312:B I *L 0
*CAP
1 2309_1 0.0021384
2 2309_2 0.0001008
3 2309_3 0.001368
*RES
1 *2310:Y 2309_1 9.97143
2 2309_1 2309_2 0.514286
3 2309_2 *2311:A 0
4 2309_1 2309_3 5.57143
5 2309_3 *2312:B 0
*END
*D_NET *2313 0.0008784
*CONN
*I *2314:Q O *D _1524
*I *2315:A I *L 0
*I *2316:A I *L 0
*CAP
1 2313_1 0.0005904
2 2313_2 0.000288
*RES
1 *2314:Q 2313_1 2.54286
2 2313_1 *2315:A 0
3 2313_1 2313_2 1
4 2313_2 *2316:A 0
*END
*D_NET *2317 0.001728
*CONN
*I *2318:Y O *D _1147
*I *2319:C I *L 0
*I *2320:B I *L 0
*CAP
1 2317_1 0.0010008
2 2317_2 0.00018
3 2317_3 0.0005472
*RES
1 *2318:Y 2317_1 4.87143
2 2317_1 2317_2 0.625
3 2317_2 *2319:C 0
4 2317_1 2317_3 2.22857
5 2317_3 *2320:B 0
*END
*D_NET *2321 0.0027072
*CONN
*I *2322:Y O *D _1162
*I *2323:B I *L 0
*I *2324:A I *L 0
*CAP
1 2321_1 0.0012384
2 2321_2 0.0003024
3 2321_3 0.0011664
*RES
1 *2322:Y 2321_1 4.79286
2 2321_1 2321_2 1.54286
3 2321_2 *2323:B 0
4 2321_1 2321_3 4.95357
5 2321_3 *2324:A 0
*END
*D_NET *2325 0.0011664
*CONN
*I *2326:Y O *D _1163
*I *2327:B I *L 0
*I *2328:B I *L 0
*CAP
1 2325_1 0.0003168
2 2325_2 0.0003096
3 2325_3 0.00054
*RES
1 *2326:Y 2325_1 1.26429
2 2325_1 2325_2 1.40357
3 2325_2 *2327:B 0
4 2325_1 2325_3 1.875
5 2325_3 *2328:B 0
*END
*D_NET *2329 0.0039672
*CONN
*I *2330:Y O *D _1164
*I *2331:B I *L 0
*I *2332:B I *L 0
*CAP
1 2329_1 0.0008712
2 2329_2 0.0007056
3 2329_3 0.0023904
*RES
1 *2330:Y 2329_1 4.09286
2 2329_1 2329_2 3.6
3 2329_2 *2331:B 0
4 2329_1 2329_3 10.5179
5 2329_3 *2332:B 0
*END
*D_NET *2333 0.0022032
*CONN
*I *2334:Y O *D _1168
*I *2335:B I *L 0
*I *2336:A I *L 0
*CAP
1 2333_1 0.0004968
2 2333_2 0.0004536
3 2333_3 0.0012528
*RES
1 *2334:Y 2333_1 2.3
2 2333_1 2333_2 2.31429
3 2333_2 *2335:B 0
4 2333_1 2333_3 4.925
5 2333_3 *2336:A 0
*END
*D_NET *2337 0.0017136
*CONN
*I *2338:Y O *D _1175
*I *2339:B I *L 0
*I *2340:B I *L 0
*CAP
1 2337_1 0.0004032
2 2337_2 0.0004608
3 2337_3 0.0008496
*RES
1 *2338:Y 2337_1 2.05714
2 2337_1 2337_2 2.175
3 2337_2 *2339:B 0
4 2337_1 2337_3 3.68929
5 2337_3 *2340:B 0
*END
*D_NET *2341 0.0021456
*CONN
*I *2342:Y O *D _1238
*I *2343:C I *L 0
*I *2344:C I *L 0
*CAP
1 2341_1 0.0011016
2 2341_2 0.0004536
3 2341_3 0.0005904
*RES
1 *2342:Y 2341_1 4.56429
2 2341_1 2341_2 2.31429
3 2341_2 *2343:C 0
4 2341_1 2341_3 2.54286
5 2341_3 *2344:C 0
*END
*D_NET *2345 0.0032112
*CONN
*I *2346:Y O *D _1240
*I *2347:B I *L 0
*I *2348:B I *L 0
*CAP
1 2345_1 0.0024192
2 2345_2 0.000252
3 2345_3 0.00054
*RES
1 *2346:Y 2345_1 9.46786
2 2345_1 2345_2 1.28571
3 2345_2 *2347:B 0
4 2345_1 2345_3 2.28571
5 2345_3 *2348:B 0
*END
*D_NET *2349 0.0022536
*CONN
*I *2350:Y O *D _1243
*I *2351:A I *L 0
*I *2352:C I *L 0
*CAP
1 2349_1 0.0005472
2 2349_2 0.0003096
3 2349_3 0.0013968
*RES
1 *2350:Y 2349_1 2.14643
2 2349_1 2349_2 1.40357
3 2349_2 *2351:A 0
4 2349_1 2349_3 5.425
5 2349_3 *2352:C 0
*END
*D_NET *2353 0.0026568
*CONN
*I *2354:Y O *D _1244
*I *2355:C I *L 0
*I *2356:B I *L 0
*CAP
1 2353_1 0.0001872
2 2353_2 0.000828
3 2353_3 0.0016416
*RES
1 *2354:Y 2353_1 0.896429
2 2353_1 2353_2 3.28571
3 2353_2 *2355:C 0
4 2353_1 2353_3 6.35714
5 2353_3 *2356:B 0
*END
*D_NET *2357 0.001008
*CONN
*I *2358:Y O *D _1251
*I *2359:B I *L 0
*I *2360:C I *L 0
*CAP
1 2357_1 0.000288
2 2357_2 3.6e-05
3 2357_3 0.000684
*RES
1 *2358:Y 2357_1 1
2 2357_1 2357_2 0.125
3 2357_2 *2359:B 0
4 2357_2 2357_3 2.375
5 2357_3 *2360:C 0
*END
*D_NET *2361 0.0037872
*CONN
*I *2362:Y O *D _1252
*I *2363:A I *L 0
*I *2364:B I *L 0
*CAP
1 2361_1 0.000504
2 2361_2 0.0032832
*RES
1 *2362:Y 2361_1 2.16071
2 2361_1 *2363:A 0
3 2361_1 2361_2 14.1107
4 2361_2 *2364:B 0
*END
*D_NET *2365 0.0032184
*CONN
*I *2366:Y O *D _1262
*I *2367:B I *L 0
*I *2368:C I *L 0
*CAP
1 2365_1 0.0017064
2 2365_2 0.0002016
3 2365_3 0.0013104
*RES
1 *2366:Y 2365_1 6.41786
2 2365_1 2365_2 1.02857
3 2365_2 *2367:B 0
4 2365_1 2365_3 5.28929
5 2365_3 *2368:C 0
*END
*D_NET *2369 0.0026208
*CONN
*I *2370:Y O *D _1271
*I *2371:C I *L 0
*I *2372:B I *L 0
*CAP
1 2369_1 0.0019656
2 2369_2 0.0002016
3 2369_3 0.0004536
*RES
1 *2370:Y 2369_1 7.975
2 2369_1 2369_2 1.02857
3 2369_2 *2371:C 0
4 2369_1 2369_3 1.90357
5 2369_3 *2372:B 0
*END
*D_NET *2373 0.0022464
*CONN
*I *2374:Y O *D _1272
*I *2375:B I *L 0
*I *2376:B I *L 0
*CAP
1 2373_1 0.0001944
2 2373_2 0.0010368
3 2373_3 0.0010152
*RES
1 *2374:Y 2373_1 0.757143
2 2373_1 2373_2 4.99643
3 2373_2 *2375:B 0
4 2373_1 2373_3 4.59286
5 2373_3 *2376:B 0
*END
*D_NET *2377 0.0013896
*CONN
*I *2378:Y O *D _1289
*I *2379:B I *L 0
*I *2380:A I *L 0
*CAP
1 2377_1 0.0007632
2 2377_2 0.0001512
3 2377_3 0.0004752
*RES
1 *2378:Y 2377_1 2.89643
2 2377_1 2377_2 0.771429
3 2377_2 *2379:B 0
4 2377_1 2377_3 1.89643
5 2377_3 *2380:A 0
*END
*D_NET *2381 0.0022032
*CONN
*I *2382:Y O *D _1290
*I *2383:A I *L 0
*I *2384:A I *L 0
*CAP
1 2381_1 0.001296
2 2381_2 0.0001512
3 2381_3 0.000756
*RES
1 *2382:Y 2381_1 4.91071
2 2381_1 2381_2 0.771429
3 2381_2 *2383:A 0
4 2381_1 2381_3 3.2
5 2381_3 *2384:A 0
*END
*D_NET *2385 0.008244
*CONN
*I *2386:Y O *D _1300
*I *2387:B I *L 0
*I *2388:C I *L 0
*CAP
1 2385_1 0.0021096
2 2385_2 0.0005544
3 2385_3 0.00558
*RES
1 *2386:Y 2385_1 8.06429
2 2385_1 2385_2 2.82857
3 2385_2 *2387:B 0
4 2385_1 2385_3 20.525
5 2385_3 *2388:C 0
*END
*D_NET *2389 0.0011736
*CONN
*I *2390:Y O *D _1303
*I *2391:B I *L 0
*I *2392:B I *L 0
*CAP
1 2389_1 0.000648
2 2389_2 0.0001008
3 2389_3 0.0004248
*RES
1 *2390:Y 2389_1 2.25
2 2389_1 2389_2 0.514286
3 2389_2 *2391:B 0
4 2389_1 2389_3 1.63929
5 2389_3 *2392:B 0
*END
*D_NET *2393 0.0031536
*CONN
*I *2394:Y O *D _1304
*I *2395:A I *L 0
*I *2396:A I *L 0
*CAP
1 2393_1 0.001764
2 2393_2 0.0003312
3 2393_3 0.0010584
*RES
1 *2394:Y 2393_1 8.34286
2 2393_1 2393_2 1.39643
3 2393_2 *2395:A 0
4 2393_1 2393_3 4.16786
5 2393_3 *2396:A 0
*END
*D_NET *2397 0.0010368
*CONN
*I *2398:Y O *D _1316
*I *2399:A I *L 0
*I *2400:B I *L 0
*CAP
1 2397_1 0.000216
2 2397_2 0.000108
3 2397_3 0.0007128
*RES
1 *2398:Y 2397_1 0.75
2 2397_1 2397_2 0.375
3 2397_2 *2399:A 0
4 2397_1 2397_3 3.46071
5 2397_3 *2400:B 0
*END
*D_NET *2401 0.0036072
*CONN
*I *2402:Y O *D _1318
*I *2403:A I *L 0
*I *2404:A I *L 0
*CAP
1 2401_1 0.0016344
2 2401_2 0.0006192
3 2401_3 0.0013536
*RES
1 *2402:Y 2401_1 7.07143
2 2401_1 2401_2 2.80714
3 2401_2 *2403:A 0
4 2401_1 2401_3 5.43929
5 2401_3 *2404:A 0
*END
*D_NET *2405 0.0017136
*CONN
*I *2406:Y O *D _1329
*I *2407:C I *L 0
*I *2408:A I *L 0
*CAP
1 2405_1 0.0004608
2 2405_2 0.0004464
3 2405_3 0.0008064
*RES
1 *2406:Y 2405_1 1.92857
2 2405_1 2405_2 1.71429
3 2405_2 *2407:C 0
4 2405_1 2405_3 4.11429
5 2405_3 *2408:A 0
*END
*D_NET *2409 0.0009432
*CONN
*I *2410:Y O *D _1357
*I *2411:B I *L 0
*I *2412:A I *L 0
*CAP
1 2409_1 0.0006192
2 2409_2 0.000108
3 2409_3 0.000216
*RES
1 *2410:Y 2409_1 2.39643
2 2409_1 2409_2 0.375
3 2409_2 *2411:B 0
4 2409_1 2409_3 0.75
5 2409_3 *2412:A 0
*END
*D_NET *2413 0.0037584
*CONN
*I *2414:Y O *D _1358
*I *2415:B I *L 0
*I *2416:B I *L 0
*CAP
1 2413_1 0.0005112
2 2413_2 0.0012384
3 2413_3 0.0020088
*RES
1 *2414:Y 2413_1 2.43214
2 2413_1 2413_2 6.025
3 2413_2 *2415:B 0
4 2413_1 2413_3 7.55
5 2413_3 *2416:B 0
*END
*D_NET *2417 0.0048744
*CONN
*I *2418:Y O *D _1372
*I *2419:B I *L 0
*I *2420:B I *L 0
*CAP
1 2417_1 0.0035784
2 2417_2 0.000324
3 2417_3 0.000972
*RES
1 *2418:Y 2417_1 16.2036
2 2417_1 2417_2 1.125
3 2417_2 *2419:B 0
4 2417_1 2417_3 3.78571
5 2417_3 *2420:B 0
*END
*D_NET *2421 0.0013464
*CONN
*I *2422:Y O *D _1373
*I *2423:A I *L 0
*I *2424:A I *L 0
*CAP
1 2421_1 3.6e-05
2 2421_2 0.000324
3 2421_3 0.0009864
*RES
1 *2422:Y 2421_1 0.125
2 2421_1 2421_2 1.125
3 2421_2 *2423:A 0
4 2421_1 2421_3 4.73929
5 2421_3 *2424:A 0
*END
*D_NET *2425 0.0030384
*CONN
*I *2426:Y O *D _1398
*I *2427:B I *L 0
*I *2428:C I *L 0
*CAP
1 2425_1 0.0012384
2 2425_2 0.0008136
3 2425_3 0.0009864
*RES
1 *2426:Y 2425_1 6.025
2 2425_1 2425_2 3.56429
3 2425_2 *2427:B 0
4 2425_1 2425_3 4.32857
5 2425_3 *2428:C 0
*END
*D_NET *2429 0.0016632
*CONN
*I *2430:Y O *D _1411
*I *2431:B I *L 0
*I *2432:B I *L 0
*CAP
1 2429_1 0.000252
2 2429_2 0.0002808
3 2429_3 0.0011304
*RES
1 *2430:Y 2429_1 0.875
2 2429_1 2429_2 1.13929
3 2429_2 *2431:B 0
4 2429_1 2429_3 5.23929
5 2429_3 *2432:B 0
*END
*D_NET *2433 0.002844
*CONN
*I *2434:Y O *D _1412
*I *2435:A I *L 0
*I *2436:A I *L 0
*CAP
1 2433_1 0.0009504
2 2433_2 0.0002016
3 2433_3 0.001692
*RES
1 *2434:Y 2433_1 4.20357
2 2433_1 2433_2 1.02857
3 2433_2 *2435:A 0
4 2433_1 2433_3 7.51786
5 2433_3 *2436:A 0
*END
*D_NET *2437 0.0011448
*CONN
*I *2438:Y O *D _1422
*I *2439:B I *L 0
*I *2440:A I *L 0
*CAP
1 2437_1 0.00036
2 2437_2 0.0007848
*RES
1 *2438:Y 2437_1 1.25
2 2437_1 *2439:B 0
3 2437_1 2437_2 3.71071
4 2437_2 *2440:A 0
*END
*D_NET *2441 0.001836
*CONN
*I *2442:Y O *D _1425
*I *2443:A I *L 0
*I *2444:A I *L 0
*CAP
1 2441_1 0.001368
2 2441_2 0.000468
*RES
1 *2442:Y 2441_1 6.39286
2 2441_1 *2443:A 0
3 2441_1 2441_2 2.03571
4 2441_2 *2444:A 0
*END
*D_NET *2445 0.0030456
*CONN
*I *2446:Y O *D _1435
*I *2447:B I *L 0
*I *2448:C I *L 0
*CAP
1 2445_1 0.0021816
2 2445_2 0.000864
*RES
1 *2446:Y 2445_1 9.13571
2 2445_1 *2447:B 0
3 2445_1 2445_2 4.23214
4 2445_2 *2448:C 0
*END
*D_NET *2449 0.0016056
*CONN
*I *2450:Y O *D _1436
*I *2451:A I *L 0
*I *2452:B I *L 0
*CAP
1 2449_1 0.0009576
2 2449_2 0.000252
3 2449_3 0.000396
*RES
1 *2450:Y 2449_1 4.06429
2 2449_1 2449_2 1.28571
3 2449_2 *2451:A 0
4 2449_1 2449_3 1.375
5 2449_3 *2452:B 0
*END
*D_NET *2453 0.0015768
*CONN
*I *2454:Y O *D _1437
*I *2455:A I *L 0
*I *2456:B I *L 0
*CAP
1 2453_1 0.0005976
2 2453_2 0.0001008
3 2453_3 0.0008784
*RES
1 *2454:Y 2453_1 2.40357
2 2453_1 2453_2 0.514286
3 2453_2 *2455:A 0
4 2453_1 2453_3 3.625
5 2453_3 *2456:B 0
*END
*D_NET *2457 0.0030456
*CONN
*I *2458:Y O *D _1438
*I *2459:A I *L 0
*I *2460:A I *L 0
*CAP
1 2457_1 0.0013896
2 2457_2 0.0002016
3 2457_3 0.0014544
*RES
1 *2458:Y 2457_1 6.38571
2 2457_1 2457_2 1.02857
3 2457_2 *2459:A 0
4 2457_1 2457_3 6.36429
5 2457_3 *2460:A 0
*END
*D_NET *2461 0.0015048
*CONN
*I *2462:Y O *D _1449
*I *2463:C I *L 0
*I *2464:A I *L 0
*CAP
1 2461_1 0.0009
2 2461_2 0.0001008
3 2461_3 0.000504
*RES
1 *2462:Y 2461_1 3.53571
2 2461_1 2461_2 0.514286
3 2461_2 *2463:C 0
4 2461_1 2461_3 2.16071
5 2461_3 *2464:A 0
*END
*D_NET *2465 0.0018072
*CONN
*I *2466:Y O *D _1450
*I *2467:B I *L 0
*I *2468:B I *L 0
*CAP
1 2465_1 0.000864
2 2465_2 0.000252
3 2465_3 0.0006912
*RES
1 *2466:Y 2465_1 3.41071
2 2465_1 2465_2 1.28571
3 2465_2 *2467:B 0
4 2465_1 2465_3 3.05714
5 2465_3 *2468:B 0
*END
*D_NET *2469 0.0024336
*CONN
*I *2470:Y O *D _1451
*I *2471:B I *L 0
*I *2472:A I *L 0
*CAP
1 2469_1 0.0016416
2 2469_2 0.0001512
3 2469_3 0.0006408
*RES
1 *2470:Y 2469_1 6.43929
2 2469_1 2469_2 0.771429
3 2469_2 *2471:B 0
4 2469_1 2469_3 2.8
5 2469_3 *2472:A 0
*END
*D_NET *2473 0.0019512
*CONN
*I *2474:Y O *D _1462
*I *2475:B I *L 0
*I *2476:B I *L 0
*CAP
1 2473_1 0.0006696
2 2473_2 0.0003816
3 2473_3 0.0009
*RES
1 *2474:Y 2473_1 2.65357
2 2473_1 2473_2 1.65357
3 2473_2 *2475:B 0
4 2473_1 2473_3 3.125
5 2473_3 *2476:B 0
*END
*D_NET *2477 0.0021384
*CONN
*I *2478:Y O *D _1463
*I *2479:B I *L 0
*I *2480:A I *L 0
*CAP
1 2477_1 0.0008784
2 2477_2 0.0005472
3 2477_3 0.0007128
*RES
1 *2478:Y 2477_1 3.54286
2 2477_1 2477_2 2.55714
3 2477_2 *2479:B 0
4 2477_1 2477_3 3.21429
5 2477_3 *2480:A 0
*END
*D_NET *2481 0.0160488
*CONN
*P *2481 O
*I *2482:A I *L 0
*I *2483:C I *L 0
*CAP
1 2481_1 0.0029736
2 2481_2 0.0064728
3 2481_3 0.0066024
*RES
1 *2481 2481_1 10.6536
2 2481_1 2481_2 28.8
3 2481_2 *2482:A 0
4 2481_1 2481_3 31.2214
5 2481_3 *2483:C 0
*END
*D_NET *2484 0.0014184
*CONN
*I *2485:Y O *D _1478
*I *2486:C I *L 0
*I *2487:A I *L 0
*CAP
1 2484_1 0.0010584
2 2484_2 3.6e-05
3 2484_3 0.000324
*RES
1 *2485:Y 2484_1 4.98929
2 2484_1 2484_2 0.125
3 2484_2 *2486:C 0
4 2484_2 2484_3 1.125
5 2484_3 *2487:A 0
*END
*D_NET *2488 0.0086544
*CONN
*I *2489:Y O *D _1489
*I *2490:B I *L 0
*I *2491:B I *L 0
*CAP
1 2488_1 0.0083664
2 2488_2 0.000288
*RES
1 *2489:Y 2488_1 34.0607
2 2488_1 *2490:B 0
3 2488_1 2488_2 1
4 2488_2 *2491:B 0
*END
*D_NET *2492 0.0015336
*CONN
*I *2493:Q O *D _1544
*I *2494:A I *L 0
*I *2495:A I *L 0
*CAP
1 2492_1 0.0003888
2 2492_2 0.0001008
3 2492_3 0.001044
*RES
1 *2493:Q 2492_1 1.51429
2 2492_1 2492_2 0.514286
3 2492_2 *2494:A 0
4 2492_1 2492_3 4.44643
5 2492_3 *2495:A 0
*END
*D_NET *2496 0.000612
*CONN
*I *2497:Y O *D _1535
*I *2498:A I *L 0
*I *2499:B I *L 0
*CAP
1 2496_1 0.000288
2 2496_2 3.6e-05
3 2496_3 0.000288
*RES
1 *2497:Y 2496_1 1
2 2496_1 2496_2 0.125
3 2496_2 *2498:A 0
4 2496_2 2496_3 1
5 2496_3 *2499:B 0
*END
*D_NET *2500 0.0009576
*CONN
*I *2501:Y O *D _1539
*I *2502:B I *L 0
*I *2503:B I *L 0
*CAP
1 2500_1 3.6e-05
2 2500_2 0.0004392
3 2500_3 0.0004824
*RES
1 *2501:Y 2500_1 0.125
2 2500_1 2500_2 1.77143
3 2500_2 *2502:B 0
4 2500_1 2500_3 2.16786
5 2500_3 *2503:B 0
*END
*D_NET *2504 0.0018648
*CONN
*I *2505:Y O *D _1545
*I *2506:B I *L 0
*I *2507:B I *L 0
*CAP
1 2504_1 0.000864
2 2504_2 0.0001512
3 2504_3 0.0008496
*RES
1 *2505:Y 2504_1 3.41071
2 2504_1 2504_2 0.771429
3 2504_2 *2506:B 0
4 2504_1 2504_3 3.68929
5 2504_3 *2507:B 0
*END
*D_NET *2508 0.0008136
*CONN
*I *2509:Y O *D _1546
*I *2510:A I *L 0
*I *2511:C I *L 0
*CAP
1 2508_1 0.000288
2 2508_2 0.0005256
*RES
1 *2509:Y 2508_1 1
2 2508_1 *2510:A 0
3 2508_1 2508_2 2.15357
4 2508_2 *2511:C 0
*END
*D_NET *2512 0.001368
*CONN
*I *2513:Y O *D _1547
*I *2514:C I *L 0
*I *2515:A I *L 0
*CAP
1 2512_1 0.0006768
2 2512_2 0.0002016
3 2512_3 0.0004896
*RES
1 *2513:Y 2512_1 2.925
2 2512_1 2512_2 1.02857
3 2512_2 *2514:C 0
4 2512_1 2512_3 2.02857
5 2512_3 *2515:A 0
*END
*D_NET *2516 0.0013392
*CONN
*I *2517:Y O *D _1550
*I *2518:A I *L 0
*I *2519:B I *L 0
*CAP
1 2516_1 0.000144
2 2516_2 0.000144
3 2516_3 0.0010512
*RES
1 *2517:Y 2516_1 0.5
2 2516_1 2516_2 0.5
3 2516_2 *2518:A 0
4 2516_1 2516_3 5.12857
5 2516_3 *2519:B 0
*END
*D_NET *2520 0.002556
*CONN
*I *2521:Y O *D _1552
*I *2522:A I *L 0
*I *2523:A I *L 0
*CAP
1 2520_1 0.0011592
2 2520_2 0.0005112
3 2520_3 0.0008856
*RES
1 *2521:Y 2520_1 4.68214
2 2520_1 2520_2 2.43214
3 2520_2 *2522:A 0
4 2520_1 2520_3 3.81429
5 2520_3 *2523:A 0
*END
*D_NET *2524 0.0016416
*CONN
*I *2525:Y O *D _1554
*I *2526:A I *L 0
*I *2527:C I *L 0
*CAP
1 2524_1 0.000144
2 2524_2 0.000144
3 2524_3 0.0013536
*RES
1 *2525:Y 2524_1 0.5
2 2524_1 2524_2 0.5
3 2524_2 *2526:A 0
4 2524_1 2524_3 6.67143
5 2524_3 *2527:C 0
*END
*D_NET *2528 0.0025272
*CONN
*I *2529:Y O *D _1558
*I *2530:B I *L 0
*I *2531:B I *L 0
*CAP
1 2528_1 0.0001512
2 2528_2 0.001152
3 2528_3 0.001224
*RES
1 *2529:Y 2528_1 0.771429
2 2528_1 2528_2 4.82143
3 2528_2 *2530:B 0
4 2528_1 2528_3 4.66071
5 2528_3 *2531:B 0
*END
*D_NET *2532 0.0014112
*CONN
*I *2533:Y O *D _1559
*I *2534:B I *L 0
*I *2535:A I *L 0
*CAP
1 2532_1 0.0004752
2 2532_2 0.000936
*RES
1 *2533:Y 2532_1 1.89643
2 2532_1 *2534:B 0
3 2532_1 2532_2 4.48214
4 2532_2 *2535:A 0
*END
*D_NET *2536 0.0015192
*CONN
*I *2537:Y O *D _1560
*I *2538:B I *L 0
*I *2539:C I *L 0
*CAP
1 2536_1 0.0003456
2 2536_2 0.0003528
3 2536_3 0.0008208
*RES
1 *2537:Y 2536_1 1.52857
2 2536_1 2536_2 1.38929
3 2536_2 *2538:B 0
4 2536_1 2536_3 3.83571
5 2536_3 *2539:C 0
*END
*D_NET *2540 0.0016272
*CONN
*I *2541:Y O *D _1561
*I *2542:C I *L 0
*I *2543:A I *L 0
*CAP
1 2540_1 0.00018
2 2540_2 0.00018
3 2540_3 0.0012672
*RES
1 *2541:Y 2540_1 0.625
2 2540_1 2540_2 0.625
3 2540_2 *2542:C 0
4 2540_1 2540_3 5.87857
5 2540_3 *2543:A 0
*END
*D_NET *2544 0.0030744
*CONN
*I *2545:Y O *D _1562
*I *2546:B I *L 0
*I *2547:C I *L 0
*CAP
1 2544_1 0.001224
2 2544_2 0.0001512
3 2544_3 0.0016992
*RES
1 *2545:Y 2544_1 5.48214
2 2544_1 2544_2 0.771429
3 2544_2 *2546:B 0
4 2544_1 2544_3 6.96786
5 2544_3 *2547:C 0
*END
*D_NET *2548 0.000972
*CONN
*I *2549:Y O *D _1571
*I *2550:B I *L 0
*I *2551:A I *L 0
*CAP
1 2548_1 0.000324
2 2548_2 0.000648
*RES
1 *2549:Y 2548_1 1.125
2 2548_1 *2550:B 0
3 2548_1 2548_2 3.07143
4 2548_2 *2551:A 0
*END
*D_NET *2552 0.0036576
*CONN
*I *2553:Y O *D _1573
*I *2554:C I *L 0
*I *2555:C I *L 0
*CAP
1 2552_1 0.0002016
2 2552_2 0.0007128
3 2552_3 0.0027432
*RES
1 *2553:Y 2552_1 1.02857
2 2552_1 2552_2 3.46071
3 2552_2 *2554:C 0
4 2552_1 2552_3 11.4143
5 2552_3 *2555:C 0
*END
*D_NET *2556 0.0016848
*CONN
*I *2557:Y O *D _1578
*I *2558:A I *L 0
*I *2559:A I *L 0
*CAP
1 2556_1 0.00036
2 2556_2 3.6e-05
3 2556_3 0.0012888
*RES
1 *2557:Y 2556_1 1.25
2 2556_1 2556_2 0.125
3 2556_2 *2558:A 0
4 2556_2 2556_3 5.37857
5 2556_3 *2559:A 0
*END
*D_NET *2560 0.0019008
*CONN
*I *2561:Y O *D _1579
*I *2562:B I *L 0
*I *2563:A I *L 0
*CAP
1 2560_1 0.0004752
2 2560_2 0.0001512
3 2560_3 0.0012744
*RES
1 *2561:Y 2560_1 1.89643
2 2560_1 2560_2 0.771429
3 2560_2 *2562:B 0
4 2560_1 2560_3 5.32857
5 2560_3 *2563:A 0
*END
*D_NET *2564 0.0044784
*CONN
*I *2565:Y O *D _1580
*I *2566:B I *L 0
*I *2567:B I *L 0
*CAP
1 2564_1 0.0019224
2 2564_2 0.000396
3 2564_3 0.00216
*RES
1 *2565:Y 2564_1 8.15357
2 2564_1 2564_2 1.78571
3 2564_2 *2566:B 0
4 2564_1 2564_3 10.7857
5 2564_3 *2567:B 0
*END
*D_NET *2568 0.001656
*CONN
*I *2569:Y O *D _1586
*I *2570:B I *L 0
*I *2571:C I *L 0
*CAP
1 2568_1 0.0003312
2 2568_2 0.000144
3 2568_3 0.0011808
*RES
1 *2569:Y 2568_1 1.39643
2 2568_1 2568_2 0.5
3 2568_2 *2570:B 0
4 2568_1 2568_3 5.25
5 2568_3 *2571:C 0
*END
*D_NET *2572 0.0016128
*CONN
*I *2573:Y O *D _1593
*I *2574:B I *L 0
*I *2575:C I *L 0
*CAP
1 2572_1 0.0006984
2 2572_2 0.000108
3 2572_3 0.0008064
*RES
1 *2573:Y 2572_1 2.91786
2 2572_1 2572_2 0.375
3 2572_2 *2574:B 0
4 2572_1 2572_3 3.12857
5 2572_3 *2575:C 0
*END
*D_NET *2576 0.0010872
*CONN
*I *2577:Y O *D _1595
*I *2578:A I *L 0
*I *2579:A I *L 0
*CAP
1 2576_1 0.0001368
2 2576_2 0.0004608
3 2576_3 0.0004896
*RES
1 *2577:Y 2576_1 0.639286
2 2576_1 2576_2 1.76429
3 2576_2 *2578:A 0
4 2576_1 2576_3 2.02857
5 2576_3 *2579:A 0
*END
*D_NET *2580 0.0016992
*CONN
*I *2581:Y O *D _1622
*I *2582:A I *L 0
*I *2583:C I *L 0
*CAP
1 2580_1 0.0008856
2 2580_2 0.0008136
*RES
1 *2581:Y 2580_1 4.225
2 2580_1 *2582:A 0
3 2580_1 2580_2 3.975
4 2580_2 *2583:C 0
*END
*D_NET *2584 0.001944
*CONN
*I *2585:Y O *D _1646
*I *2586:B I *L 0
*I *2587:A I *L 0
*CAP
1 2584_1 0.0009504
2 2584_2 0.0001512
3 2584_3 0.0008424
*RES
1 *2585:Y 2584_1 3.79286
2 2584_1 2584_2 0.771429
3 2584_2 *2586:B 0
4 2584_1 2584_3 3.58214
5 2584_3 *2587:A 0
*END
*D_NET *2588 0.0044352
*CONN
*I *2589:Y O *D _1653
*I *2590:A I *L 0
*I *2591:C I *L 0
*CAP
1 2588_1 0.0024192
2 2588_2 0.0007056
3 2588_3 0.0013104
*RES
1 *2589:Y 2588_1 11.6857
2 2588_1 2588_2 2.77857
3 2588_2 *2590:A 0
4 2588_1 2588_3 6.275
5 2588_3 *2591:C 0
*END
*D_NET *2592 0.0024768
*CONN
*I *2593:Y O *D _1656
*I *2594:A I *L 0
*I *2595:C I *L 0
*CAP
1 2592_1 0.000396
2 2592_2 0.0006552
3 2592_3 0.0014256
*RES
1 *2593:Y 2592_1 1.78571
2 2592_1 2592_2 2.52143
3 2592_2 *2594:A 0
4 2592_1 2592_3 5.77143
5 2592_3 *2595:C 0
*END
*D_NET *2596 0.004464
*CONN
*I *2597:Y O *D _1657
*I *2598:A I *L 0
*I *2599:C I *L 0
*CAP
1 2596_1 0.0007056
2 2596_2 0.0013392
3 2596_3 0.0024192
*RES
1 *2597:Y 2596_1 3.18929
2 2596_1 2596_2 5.30714
3 2596_2 *2598:A 0
4 2596_1 2596_3 9.46786
5 2596_3 *2599:C 0
*END
*D_NET *2600 0.0010224
*CONN
*I *2601:Y O *D _1658
*I *2602:B I *L 0
*I *2603:B I *L 0
*CAP
1 2600_1 0.00018
2 2600_2 0.000108
3 2600_3 0.0007344
*RES
1 *2601:Y 2600_1 0.625
2 2600_1 2600_2 0.375
3 2600_2 *2602:B 0
4 2600_1 2600_3 3.04286
5 2600_3 *2603:B 0
*END
*D_NET *2604 0.0015984
*CONN
*I *2605:Y O *D _1663
*I *2606:B I *L 0
*I *2607:B I *L 0
*CAP
1 2604_1 0.0002016
2 2604_2 0.0004896
3 2604_3 0.0009072
*RES
1 *2605:Y 2604_1 1.02857
2 2604_1 2604_2 2.02857
3 2604_2 *2606:B 0
4 2604_1 2604_3 4.21786
5 2604_3 *2607:B 0
*END
*D_NET *2608 0.0009504
*CONN
*I *2609:Y O *D _1674
*I *2610:B I *L 0
*I *2611:B I *L 0
*CAP
1 2608_1 0.0004248
2 2608_2 0.0001008
3 2608_3 0.0004248
*RES
1 *2609:Y 2608_1 1.63929
2 2608_1 2608_2 0.514286
3 2608_2 *2610:B 0
4 2608_1 2608_3 1.63929
5 2608_3 *2611:B 0
*END
*D_NET *2612 0.00054
*CONN
*I *2613:Y O *D _1680
*I *2614:A I *L 0
*I *2615:C I *L 0
*CAP
1 2612_1 3.6e-05
2 2612_2 0.000252
3 2612_3 0.000252
*RES
1 *2613:Y 2612_1 0.125
2 2612_1 2612_2 0.875
3 2612_2 *2614:A 0
4 2612_1 2612_3 0.875
5 2612_3 *2615:C 0
*END
*D_NET *2616 0.00126
*CONN
*I *2617:Y O *D _1684
*I *2618:C I *L 0
*I *2619:A I *L 0
*CAP
1 2616_1 0.0008568
2 2616_2 0.0004032
*RES
1 *2617:Y 2616_1 4.37143
2 2616_1 *2618:C 0
3 2616_1 2616_2 1.64643
4 2616_2 *2619:A 0
*END
*D_NET *2620 0.0010368
*CONN
*I *2621:Y O *D _1685
*I *2622:C I *L 0
*I *2623:B I *L 0
*CAP
1 2620_1 0.0005616
2 2620_2 0.0004752
*RES
1 *2621:Y 2620_1 2.27857
2 2620_1 *2622:C 0
3 2620_1 2620_2 1.89643
4 2620_2 *2623:B 0
*END
*D_NET *2624 0.001296
*CONN
*I *2625:Y O *D _1686
*I *2626:B I *L 0
*I *2627:B I *L 0
*CAP
1 2624_1 0.0003672
2 2624_2 0.000108
3 2624_3 0.0008208
*RES
1 *2625:Y 2624_1 1.52143
2 2624_1 2624_2 0.375
3 2624_2 *2626:B 0
4 2624_1 2624_3 3.83571
5 2624_3 *2627:B 0
*END
*D_NET *2628 0.0043272
*CONN
*I *2629:Y O *D _1699
*I *2630:C I *L 0
*I *2631:B I *L 0
*CAP
1 2628_1 0.0030384
2 2628_2 0.000216
3 2628_3 0.0010728
*RES
1 *2629:Y 2628_1 15.15
2 2628_1 2628_2 0.75
3 2628_2 *2630:C 0
4 2628_1 2628_3 5.12143
5 2628_3 *2631:B 0
*END
*D_NET *2632 0.0011448
*CONN
*I *2633:Y O *D _1711
*I *2634:A I *L 0
*I *2635:C I *L 0
*CAP
1 2632_1 0.0002952
2 2632_2 0.000144
3 2632_3 0.0007056
*RES
1 *2633:Y 2632_1 1.27143
2 2632_1 2632_2 0.5
3 2632_2 *2634:A 0
4 2632_1 2632_3 3.18929
5 2632_3 *2635:C 0
*END
*D_NET *2636 0.0016416
*CONN
*I *2637:Y O *D _1721
*I *2638:B I *L 0
*I *2639:A I *L 0
*CAP
1 2636_1 0.0009144
2 2636_2 0.0007272
*RES
1 *2637:Y 2636_1 3.66786
2 2636_1 *2638:B 0
3 2636_1 2636_2 3.18214
4 2636_2 *2639:A 0
*END
*D_NET *2640 0.0043632
*CONN
*I *2641:Y O *D _1726
*I *2642:A I *L 0
*I *2643:A I *L 0
*CAP
1 2640_1 0.0007848
2 2640_2 0.001152
3 2640_3 0.0024264
*RES
1 *2641:Y 2640_1 3.71071
2 2640_1 2640_2 5.23214
3 2640_2 *2642:A 0
4 2640_1 2640_3 11.7929
5 2640_3 *2643:A 0
*END
*D_NET *2644 0.0017352
*CONN
*I *2645:Q O *D _1976
*I *2646:A I *L 0
*I *2647:A I *L 0
*CAP
1 2644_1 0.0011736
2 2644_2 0.0001008
3 2644_3 0.0004608
*RES
1 *2645:Q 2644_1 4.40357
2 2644_1 2644_2 0.514286
3 2644_2 *2646:A 0
4 2644_1 2644_3 1.76429
5 2644_3 *2647:A 0
*END
*D_NET *2648 0.0023544
*CONN
*I *2649:Y O *D _1731
*I *2650:B I *L 0
*I *2651:A I *L 0
*CAP
1 2648_1 0.0003024
2 2648_2 0.0006048
3 2648_3 0.0014472
*RES
1 *2649:Y 2648_1 1.13214
2 2648_1 2648_2 3.08571
3 2648_2 *2650:B 0
4 2648_1 2648_3 6.91429
5 2648_3 *2651:A 0
*END
*D_NET *2652 0.0028224
*CONN
*I *2653:Y O *D _1732
*I *2654:C I *L 0
*I *2655:A I *L 0
*CAP
1 2652_1 0.0006336
2 2652_2 0.0008784
3 2652_3 0.0013104
*RES
1 *2653:Y 2652_1 2.93929
2 2652_1 2652_2 3.54286
3 2652_2 *2654:C 0
4 2652_1 2652_3 6.275
5 2652_3 *2655:A 0
*END
*D_NET *2656 0.0019512
*CONN
*I *2657:Y O *D _1736
*I *2658:A I *L 0
*I *2659:A I *L 0
*CAP
1 2656_1 0.0001008
2 2656_2 0.0004608
3 2656_3 0.0013896
*RES
1 *2657:Y 2656_1 0.514286
2 2656_1 2656_2 1.76429
3 2656_2 *2658:A 0
4 2656_1 2656_3 5.975
5 2656_3 *2659:A 0
*END
*D_NET *2660 0.001404
*CONN
*I *2661:Y O *D _1748
*I *2662:B I *L 0
*I *2663:B I *L 0
*CAP
1 2660_1 0.00054
2 2660_2 0.000864
*RES
1 *2661:Y 2660_1 2.28571
2 2660_1 *2662:B 0
3 2660_1 2660_2 4.23214
4 2660_2 *2663:B 0
*END
*D_NET *2664 0.0012672
*CONN
*I *2665:Y O *D _1757
*I *2666:B I *L 0
*I *2667:B I *L 0
*CAP
1 2664_1 0.0005112
2 2664_2 0.000756
*RES
1 *2665:Y 2664_1 2.02143
2 2664_1 *2666:B 0
3 2664_1 2664_2 3.44643
4 2664_2 *2667:B 0
*END
*D_NET *2668 0.003744
*CONN
*I *2669:Y O *D _1760
*I *2670:C I *L 0
*I *2671:B I *L 0
*CAP
1 2668_1 0.0026568
2 2668_2 0.0010872
*RES
1 *2669:Y 2668_1 12.675
2 2668_1 *2670:C 0
3 2668_1 2668_2 4.26786
4 2668_2 *2671:B 0
*END
*D_NET *2672 0.0018072
*CONN
*I *2673:Y O *D _1761
*I *2674:B I *L 0
*I *2675:A I *L 0
*CAP
1 2672_1 0.0009288
2 2672_2 0.0002016
3 2672_3 0.0006768
*RES
1 *2673:Y 2672_1 3.8
2 2672_1 2672_2 1.02857
3 2672_2 *2674:B 0
4 2672_1 2672_3 2.925
5 2672_3 *2675:A 0
*END
*D_NET *2676 0.00216
*CONN
*I *2677:Y O *D _1766
*I *2678:B I *L 0
*I *2679:A I *L 0
*CAP
1 2676_1 0.0001872
2 2676_2 0.0007776
3 2676_3 0.0011952
*RES
1 *2677:Y 2676_1 0.896429
2 2676_1 2676_2 3.43929
3 2676_2 *2678:B 0
4 2676_1 2676_3 4.725
5 2676_3 *2679:A 0
*END
*D_NET *2680 0.0025848
*CONN
*I *2681:Y O *D _1774
*I *2682:B I *L 0
*I *2683:C I *L 0
*CAP
1 2680_1 0.0014616
2 2680_2 0.000288
3 2680_3 0.0008352
*RES
1 *2681:Y 2680_1 6.47143
2 2680_1 2680_2 1
3 2680_2 *2682:B 0
4 2680_1 2680_3 3.96786
5 2680_3 *2683:C 0
*END
*D_NET *2684 0.0046944
*CONN
*I *2685:Y O *D _1776
*I *2686:B I *L 0
*I *2687:A I *L 0
*CAP
1 2684_1 0.0007128
2 2684_2 0.00018
3 2684_3 0.0038016
*RES
1 *2685:Y 2684_1 3.46071
2 2684_1 2684_2 0.625
3 2684_2 *2686:B 0
4 2684_1 2684_3 16.2393
5 2684_3 *2687:A 0
*END
*D_NET *2688 0.0025776
*CONN
*I *2689:Y O *D _1781
*I *2690:A I *L 0
*I *2691:B I *L 0
*CAP
1 2688_1 0.001116
2 2688_2 0.0003528
3 2688_3 0.0011088
*RES
1 *2689:Y 2688_1 4.69643
2 2688_1 2688_2 1.8
3 2688_2 *2690:A 0
4 2688_1 2688_3 4.83571
5 2688_3 *2691:B 0
*END
*D_NET *2692 0.0013392
*CONN
*I *2693:Y O *D _1787
*I *2694:A I *L 0
*I *2695:B I *L 0
*CAP
1 2692_1 0.000648
2 2692_2 0.000252
3 2692_3 0.0004392
*RES
1 *2693:Y 2692_1 3.07143
2 2692_1 2692_2 1.28571
3 2692_2 *2694:A 0
4 2692_1 2692_3 1.77143
5 2692_3 *2695:B 0
*END
*D_NET *2696 0.0031536
*CONN
*I *2697:Y O *D _1801
*I *2698:C I *L 0
*I *2699:B I *L 0
*CAP
1 2696_1 0.0024912
2 2696_2 0.0003312
3 2696_3 0.0003312
*RES
1 *2697:Y 2696_1 11.9357
2 2696_1 2696_2 1.39643
3 2696_2 *2698:C 0
4 2696_1 2696_3 1.39643
5 2696_3 *2699:B 0
*END
*D_NET *2700 0.0021528
*CONN
*I *2701:Y O *D _1803
*I *2702:B I *L 0
*I *2703:B I *L 0
*CAP
1 2700_1 0.0009504
2 2700_2 3.6e-05
3 2700_3 0.0011664
*RES
1 *2701:Y 2700_1 4.20357
2 2700_1 2700_2 0.125
3 2700_2 *2702:B 0
4 2700_2 2700_3 5.36429
5 2700_3 *2703:B 0
*END
*D_NET *2704 0.0019224
*CONN
*I *2705:Y O *D _1805
*I *2706:B I *L 0
*I *2707:B I *L 0
*CAP
1 2704_1 0.0011664
2 2704_2 0.000756
*RES
1 *2705:Y 2704_1 4.95357
2 2704_1 *2706:B 0
3 2704_1 2704_2 2.625
4 2704_2 *2707:B 0
*END
*D_NET *2708 0.0021672
*CONN
*I *2709:Y O *D _1813
*I *2710:A I *L 0
*I *2711:B I *L 0
*CAP
1 2708_1 0.0013392
2 2708_2 0.0003744
3 2708_3 0.0004536
*RES
1 *2709:Y 2708_1 5.30714
2 2708_1 2708_2 1.79286
3 2708_2 *2710:A 0
4 2708_1 2708_3 2.31429
5 2708_3 *2711:B 0
*END
*D_NET *2712 0.0018
*CONN
*I *2713:Y O *D _1815
*I *2714:C I *L 0
*I *2715:B I *L 0
*CAP
1 2712_1 0.000216
2 2712_2 0.000504
3 2712_3 0.00108
*RES
1 *2713:Y 2712_1 0.75
2 2712_1 2712_2 1.75
3 2712_2 *2714:C 0
4 2712_1 2712_3 4.98214
5 2712_3 *2715:B 0
*END
*D_NET *2716 0.0047808
*CONN
*I *2717:Y O *D _1822
*I *2718:C I *L 0
*I *2719:A I *L 0
*CAP
1 2716_1 0.0033192
2 2716_2 0.0001008
3 2716_3 0.0013608
*RES
1 *2717:Y 2716_1 15.6321
2 2716_1 2716_2 0.514286
3 2716_2 *2718:C 0
4 2716_1 2716_3 6.28571
5 2716_3 *2719:A 0
*END
*D_NET *2720 0.0015984
*CONN
*I *2721:Y O *D _1830
*I *2722:A I *L 0
*I *2723:B I *L 0
*CAP
1 2720_1 0.0010944
2 2720_2 0.000504
*RES
1 *2721:Y 2720_1 5.11429
2 2720_1 *2722:A 0
3 2720_1 2720_2 2.57143
4 2720_2 *2723:B 0
*END
*D_NET *2724 0.0011232
*CONN
*I *2725:Y O *D _1831
*I *2726:B I *L 0
*I *2727:C I *L 0
*CAP
1 2724_1 0.0007632
2 2724_2 0.00036
*RES
1 *2725:Y 2724_1 3.30714
2 2724_1 *2726:B 0
3 2724_1 2724_2 1.25
4 2724_2 *2727:C 0
*END
*D_NET *2728 0.0018072
*CONN
*I *2729:Q O *D _1961
*I *2730:A I *L 0
*I *2731:B I *L 0
*CAP
1 2728_1 0.000252
2 2728_2 0.0004032
3 2728_3 0.001152
*RES
1 *2729:Q 2728_1 1.28571
2 2728_1 2728_2 2.05714
3 2728_2 *2730:A 0
4 2728_1 2728_3 4.41071
5 2728_3 *2731:B 0
*END
*D_NET *2732 0.0018
*CONN
*I *2733:Y O *D _1842
*I *2734:A I *L 0
*I *2735:B I *L 0
*CAP
1 2732_1 3.6e-05
2 2732_2 0.000288
3 2732_3 0.001476
*RES
1 *2733:Y 2732_1 0.125
2 2732_1 2732_2 1
3 2732_2 *2734:A 0
4 2732_1 2732_3 5.7
5 2732_3 *2735:B 0
*END
*D_NET *2736 0.0020808
*CONN
*I *2737:Q O *D _1962
*I *2738:B I *L 0
*I *2739:A I *L 0
*CAP
1 2736_1 0.0012384
2 2736_2 0.000108
3 2736_3 0.0007344
*RES
1 *2737:Q 2736_1 5.61429
2 2736_1 2736_2 0.375
3 2736_2 *2738:B 0
4 2736_1 2736_3 3.04286
5 2736_3 *2739:A 0
*END
*D_NET *2740 0.002664
*CONN
*I *2741:Y O *D _1846
*I *2742:A I *L 0
*I *2743:B I *L 0
*CAP
1 2740_1 0.0008568
2 2740_2 0.0001512
3 2740_3 0.001656
*RES
1 *2741:Y 2740_1 3.96071
2 2740_1 2740_2 0.771429
3 2740_2 *2742:A 0
4 2740_1 2740_3 7.80357
5 2740_3 *2743:B 0
*END
*D_NET *2744 0.0015336
*CONN
*I *2745:Q O *D _1963
*I *2746:A I *L 0
*I *2747:B I *L 0
*CAP
1 2744_1 0.0006408
2 2744_2 0.0002088
3 2744_3 0.000684
*RES
1 *2745:Q 2744_1 2.38929
2 2744_1 2744_2 0.889286
3 2744_2 *2746:A 0
4 2744_1 2744_3 3.19643
5 2744_3 *2747:B 0
*END
*D_NET *2748 0.001512
*CONN
*I *2749:Q O *D _1965
*I *2750:A I *L 0
*I *2751:B I *L 0
*CAP
1 2748_1 0.0007848
2 2748_2 3.6e-05
3 2748_3 0.0006912
*RES
1 *2749:Q 2748_1 2.88929
2 2748_1 2748_2 0.125
3 2748_2 *2750:A 0
4 2748_2 2748_3 2.64643
5 2748_3 *2751:B 0
*END
*D_NET *2752 0.0022536
*CONN
*I *2753:Y O *D _1855
*I *2754:B I *L 0
*I *2755:A I *L 0
*CAP
1 2752_1 0.000936
2 2752_2 0.0002088
3 2752_3 0.0011088
*RES
1 *2753:Y 2752_1 4.48214
2 2752_1 2752_2 0.889286
3 2752_2 *2754:B 0
4 2752_1 2752_3 4.425
5 2752_3 *2755:A 0
*END
*D_NET *2756 0.0010512
*CONN
*I *2757:Q O *D _1966
*I *2758:B I *L 0
*I *2759:A I *L 0
*CAP
1 2756_1 0.000396
2 2756_2 0.0006552
*RES
1 *2757:Q 2756_1 1.375
2 2756_1 *2758:B 0
3 2756_1 2756_2 3.34286
4 2756_2 *2759:A 0
*END
*D_NET *2760 0.0041904
*CONN
*I *2761:Q O *D _1967
*I *2762:B I *L 0
*I *2763:A I *L 0
*CAP
1 2760_1 0.0036864
2 2760_2 0.000504
*RES
1 *2761:Q 2760_1 16.9893
2 2760_1 *2762:B 0
3 2760_1 2760_2 2.57143
4 2760_2 *2763:A 0
*END
*D_NET *2764 0.0016992
*CONN
*I *2765:Y O *D _1870
*I *2766:C I *L 0
*I *2767:B I *L 0
*CAP
1 2764_1 0.0004752
2 2764_2 0.001224
*RES
1 *2765:Y 2764_1 1.89643
2 2764_1 *2766:C 0
3 2764_1 2764_2 4.825
4 2764_2 *2767:B 0
*END
*D_NET *2768 0.005364
*CONN
*I *2769:Y O *D _1880
*I *2770:C I *L 0
*I *2771:C I *L 0
*CAP
1 2768_1 0.0004176
2 2768_2 0.000864
3 2768_3 0.0040824
*RES
1 *2769:Y 2768_1 1.77857
2 2768_1 2768_2 3
3 2768_2 *2770:C 0
4 2768_1 2768_3 15.5714
5 2768_3 *2771:C 0
*END
*D_NET *2772 0.0014112
*CONN
*I *2773:Y O *D _1882
*I *2774:A I *L 0
*I *2775:A I *L 0
*CAP
1 2772_1 0.0009072
2 2772_2 0.000504
*RES
1 *2773:Y 2772_1 4.21786
2 2772_1 *2774:A 0
3 2772_1 2772_2 2.57143
4 2772_2 *2775:A 0
*END
*D_NET *2776 0.0085464
*CONN
*I *2777:Y O *D _1890
*I *2778:C I *L 0
*I *2779:A I *L 0
*CAP
1 2776_1 0.0002376
2 2776_2 0.000972
3 2776_3 0.0073368
*RES
1 *2777:Y 2776_1 1.15357
2 2776_1 2776_2 3.78571
3 2776_2 *2778:C 0
4 2776_1 2776_3 27.6929
5 2776_3 *2779:A 0
*END
*D_NET *2780 0.0022608
*CONN
*I *2781:Y O *D _1891
*I *2782:B I *L 0
*I *2783:B I *L 0
*CAP
1 2780_1 0.0004824
2 2780_2 0.0004824
3 2780_3 0.001296
*RES
1 *2781:Y 2780_1 1.75714
2 2780_1 2780_2 2.16786
3 2780_2 *2782:B 0
4 2780_1 2780_3 5.73214
5 2780_3 *2783:B 0
*END
*D_NET *2784 0.0015624
*CONN
*I *2785:Y O *D _1898
*I *2786:B I *L 0
*I *2787:A I *L 0
*CAP
1 2784_1 0.0012744
2 2784_2 0.000288
*RES
1 *2785:Y 2784_1 4.91786
2 2784_1 *2786:B 0
3 2784_1 2784_2 1
4 2784_2 *2787:A 0
*END
*D_NET *2788 0.0015264
*CONN
*I *2789:Y O *D _893
*I *2790:B I *L 0
*I *2791:A I *L 0
*CAP
1 2788_1 0.0012744
2 2788_2 0.000252
*RES
1 *2789:Y 2788_1 5.65714
2 2788_1 *2790:B 0
3 2788_1 2788_2 0.875
4 2788_2 *2791:A 0
*END
*D_NET *2792 0.0013752
*CONN
*I *2793:Y O *D _894
*I *2794:B I *L 0
*I *2795:B I *L 0
*CAP
1 2792_1 0.0004248
2 2792_2 0.0001008
3 2792_3 0.0008496
*RES
1 *2793:Y 2792_1 1.63929
2 2792_1 2792_2 0.514286
3 2792_2 *2794:B 0
4 2792_1 2792_3 3.27857
5 2792_3 *2795:B 0
*END
*D_NET *2796 0.0023112
*CONN
*I *2797:Y O *D _895
*I *2798:B I *L 0
*I *2799:B I *L 0
*CAP
1 2796_1 0.0017712
2 2796_2 0.00054
*RES
1 *2797:Y 2796_1 8.45
2 2796_1 *2798:B 0
3 2796_1 2796_2 1.875
4 2796_2 *2799:B 0
*END
*D_NET *2800 0.0050976
*CONN
*I *2801:Y O *D _896
*I *2802:A I *L 0
*I *2803:A I *L 0
*CAP
1 2800_1 0.0036
2 2800_2 0.0004032
3 2800_3 0.0010944
*RES
1 *2801:Y 2800_1 15.375
2 2800_1 2800_2 2.05714
3 2800_2 *2802:A 0
4 2800_1 2800_3 4.45714
5 2800_3 *2803:A 0
*END
*D_NET *2804 0.0023328
*CONN
*I *2805:Y O *D _899
*I *2806:B I *L 0
*I *2807:A I *L 0
*CAP
1 2804_1 0.0020088
2 2804_2 0.000144
3 2804_3 0.00018
*RES
1 *2805:Y 2804_1 7.55
2 2804_1 2804_2 0.5
3 2804_2 *2806:B 0
4 2804_1 2804_3 0.625
5 2804_3 *2807:A 0
*END
*D_NET *2808 0.012744
*CONN
*P *2808 O
*I *2809:A I *L 0
*I *2810:B I *L 0
*CAP
1 2808_1 0.0122328
2 2808_2 0.0005112
*RES
1 *2808 2808_1 59.4786
2 2808_1 *2809:A 0
3 2808_1 2808_2 2.02143
4 2808_2 *2810:B 0
*END
*D_NET *2811 0.002016
*CONN
*I *2812:Y O *D _900
*I *2813:B I *L 0
*I *2814:A I *L 0
*CAP
1 2811_1 0.0012528
2 2811_2 0.0001512
3 2811_3 0.000612
*RES
1 *2812:Y 2811_1 5.33571
2 2811_1 2811_2 0.771429
3 2811_2 *2813:B 0
4 2811_1 2811_3 2.53571
5 2811_3 *2814:A 0
*END
*D_NET *2815 0.0015984
*CONN
*I *2816:Y O *D _908
*I *2817:A I *L 0
*I *2818:A I *L 0
*CAP
1 2815_1 0.0002664
2 2815_2 0.0001008
3 2815_3 0.0012312
*RES
1 *2816:Y 2815_1 1.00714
2 2815_1 2815_2 0.514286
3 2815_2 *2817:A 0
4 2815_1 2815_3 4.93214
5 2815_3 *2818:A 0
*END
*D_NET *2819 0.00108
*CONN
*I *2820:Y O *D _914
*I *2821:B I *L 0
*I *2822:A I *L 0
*CAP
1 2819_1 0.000792
2 2819_2 3.6e-05
3 2819_3 0.000252
*RES
1 *2820:Y 2819_1 3.57143
2 2819_1 2819_2 0.125
3 2819_2 *2821:B 0
4 2819_2 2819_3 0.875
5 2819_3 *2822:A 0
*END
*D_NET *2823 0.0053136
*CONN
*I *2824:Y O *D _932
*I *2825:A I *L 0
*I *2826:B I *L 0
*CAP
1 2823_1 3.6e-05
2 2823_2 0.0015336
3 2823_3 0.003744
*RES
1 *2824:Y 2823_1 0.125
2 2823_1 2823_2 6.06429
3 2823_2 *2825:A 0
4 2823_1 2823_3 13.8214
5 2823_3 *2826:B 0
*END
*D_NET *2827 0.0015264
*CONN
*I *2828:Y O *D _990
*I *2829:B I *L 0
*I *2830:A I *L 0
*CAP
1 2827_1 3.6e-05
2 2827_2 0.0004752
3 2827_3 0.0010152
*RES
1 *2828:Y 2827_1 0.125
2 2827_1 2827_2 1.89643
3 2827_2 *2829:B 0
4 2827_1 2827_3 4.18214
5 2827_3 *2830:A 0
*END
*D_NET *2831 0.0023256
*CONN
*I *2832:Y O *D _994
*I *2833:B I *L 0
*I *2834:B I *L 0
*CAP
1 2831_1 0.0012672
2 2831_2 0.0001512
3 2831_3 0.0009072
*RES
1 *2832:Y 2831_1 5.05714
2 2831_1 2831_2 0.771429
3 2831_2 *2833:B 0
4 2831_1 2831_3 4.21786
5 2831_3 *2834:B 0
*END
*D_NET *2835 0.0008136
*CONN
*I *2836:Y O *D _997
*I *2837:A I *L 0
*CAP
1 2835_1 0.0008136
*RES
1 *2836:Y 2835_1 3.975
2 2835_1 *2837:A 0
*END
*D_NET *2838 0.00036
*CONN
*I *2839:Y O *D _998
*I *2840:B I *L 0
*CAP
1 2838_1 0.00036
*RES
1 *2839:Y 2838_1 1.25
2 2838_1 *2840:B 0
*END
*D_NET *2841 0.000684
*CONN
*I *2842:Y O *D _1000
*I *2843:D I *L 0
*CAP
1 2841_1 0.000684
*RES
1 *2842:Y 2841_1 3.19643
2 2841_1 *2843:D 0
*END
*D_NET *2844 0.000288
*CONN
*I *2845:Y O *D _1001
*I *2846:B I *L 0
*CAP
1 2844_1 0.000288
*RES
1 *2845:Y 2844_1 1
2 2844_1 *2846:B 0
*END
*D_NET *2847 0.001152
*CONN
*I *2848:Y O *D _1002
*I *2849:D I *L 0
*CAP
1 2847_1 0.001152
*RES
1 *2848:Y 2847_1 4.98571
2 2847_1 *2849:D 0
*END
*D_NET *2850 0.0011304
*CONN
*I *2851:Y O *D _1003
*I *2852:D I *L 0
*CAP
1 2850_1 0.0011304
*RES
1 *2851:Y 2850_1 4.08929
2 2850_1 *2852:D 0
*END
*D_NET *2853 0.0008784
*CONN
*I *2854:Y O *D _1004
*I *2855:B I *L 0
*CAP
1 2853_1 0.0008784
*RES
1 *2854:Y 2853_1 3.95357
2 2853_1 *2855:B 0
*END
*D_NET *2856 0.0012456
*CONN
*I *2857:Y O *D _1005
*I *2858:D I *L 0
*CAP
1 2856_1 0.0012456
*RES
1 *2857:Y 2856_1 5.475
2 2856_1 *2858:D 0
*END
*D_NET *2859 0.0037368
*CONN
*I *2860:Y O *D _1006
*I *2861:A I *L 0
*CAP
1 2859_1 0.0037368
*RES
1 *2860:Y 2859_1 13.9607
2 2859_1 *2861:A 0
*END
*D_NET *2862 0.0009432
*CONN
*I *2863:Y O *D _905
*I *2864:D I *L 0
*CAP
1 2862_1 0.0009432
*RES
1 *2863:Y 2862_1 3.93214
2 2862_1 *2864:D 0
*END
*D_NET *2865 0.0011952
*CONN
*I *2866:Y O *D _913
*I *2867:D I *L 0
*CAP
1 2865_1 0.0011952
*RES
1 *2866:Y 2865_1 5.21786
2 2865_1 *2867:D 0
*END
*D_NET *2868 0.0014112
*CONN
*I *2869:Y O *D _925
*I *2870:D I *L 0
*CAP
1 2868_1 0.0014112
*RES
1 *2869:Y 2868_1 5.96786
2 2868_1 *2870:D 0
*END
*D_NET *2871 0.001044
*CONN
*I *2872:Y O *D _927
*I *2873:D I *L 0
*CAP
1 2871_1 0.001044
*RES
1 *2872:Y 2871_1 4.85714
2 2871_1 *2873:D 0
*END
*D_NET *2874 0.0005832
*CONN
*I *2875:Y O *D _929
*I *2876:D I *L 0
*CAP
1 2874_1 0.0005832
*RES
1 *2875:Y 2874_1 2.27143
2 2874_1 *2876:D 0
*END
*D_NET *2877 0.000324
*CONN
*I *2878:Y O *D _939
*I *2879:D I *L 0
*CAP
1 2877_1 0.000324
*RES
1 *2878:Y 2877_1 1.125
2 2877_1 *2879:D 0
*END
*D_NET *2880 0.0015912
*CONN
*I *2881:Y O *D _947
*I *2882:D I *L 0
*CAP
1 2880_1 0.0015912
*RES
1 *2881:Y 2880_1 6.59286
2 2880_1 *2882:D 0
*END
*D_NET *2883 0.0016992
*CONN
*I *2884:Y O *D _953
*I *2885:D I *L 0
*CAP
1 2883_1 0.0016992
*RES
1 *2884:Y 2883_1 6.96786
2 2883_1 *2885:D 0
*END
*D_NET *2886 0.0018792
*CONN
*I *2887:Y O *D _959
*I *2888:D I *L 0
*CAP
1 2886_1 0.0018792
*RES
1 *2887:Y 2886_1 8.41429
2 2886_1 *2888:D 0
*END
*D_NET *2889 0.000324
*CONN
*I *2890:Y O *D _965
*I *2891:D I *L 0
*CAP
1 2889_1 0.000324
*RES
1 *2890:Y 2889_1 1.125
2 2889_1 *2891:D 0
*END
*D_NET *2892 0.000396
*CONN
*I *2893:Y O *D _972
*I *2894:D I *L 0
*CAP
1 2892_1 0.000396
*RES
1 *2893:Y 2892_1 1.375
2 2892_1 *2894:D 0
*END
*D_NET *2895 0.0007632
*CONN
*I *2896:Y O *D _979
*I *2897:D I *L 0
*CAP
1 2895_1 0.0007632
*RES
1 *2896:Y 2895_1 2.89643
2 2895_1 *2897:D 0
*END
*D_NET *2898 0.0016776
*CONN
*I *2899:Y O *D _988
*I *2900:D I *L 0
*CAP
1 2898_1 0.0016776
*RES
1 *2899:Y 2898_1 6.56429
2 2898_1 *2900:D 0
*END
*D_NET *2901 0.0010152
*CONN
*I *2902:Y O *D _992
*I *2903:D I *L 0
*CAP
1 2901_1 0.0010152
*RES
1 *2902:Y 2901_1 4.59286
2 2901_1 *2903:D 0
*END
*D_NET *2904 0.0006984
*CONN
*I *2905:Y O *D _996
*I *2906:D I *L 0
*CAP
1 2904_1 0.0006984
*RES
1 *2905:Y 2904_1 2.91786
2 2904_1 *2906:D 0
*END
*D_NET *2907 0.000324
*CONN
*I *2908:Y O *D _915
*I *2909:D I *L 0
*CAP
1 2907_1 0.000324
*RES
1 *2908:Y 2907_1 1.125
2 2907_1 *2909:D 0
*END
*D_NET *2910 0.0011664
*CONN
*I *2911:Q O *D _1026
*I *2912:A I *L 0
*CAP
1 2910_1 0.0011664
*RES
1 *2911:Q 2910_1 4.78929
2 2910_1 *2912:A 0
*END
*D_NET *2913 0.000756
*CONN
*I *2914:Y O *D _916
*I *2915:D I *L 0
*CAP
1 2913_1 0.000756
*RES
1 *2914:Y 2913_1 3.03571
2 2913_1 *2915:D 0
*END
*D_NET *2916 0.0009
*CONN
*I *2917:Q O *D _1027
*I *2918:C I *L 0
*CAP
1 2916_1 0.0009
*RES
1 *2917:Q 2916_1 4.35714
2 2916_1 *2918:C 0
*END
*D_NET *2919 0.000288
*CONN
*I *2920:Y O *D _1032
*I *2921:B I *L 0
*CAP
1 2919_1 0.000288
*RES
1 *2920:Y 2919_1 1
2 2919_1 *2921:B 0
*END
*D_NET *2922 0.0004752
*CONN
*I *2923:Y O *D _1034
*I *2924:C I *L 0
*CAP
1 2922_1 0.0004752
*RES
1 *2923:Y 2922_1 1.89643
2 2922_1 *2924:C 0
*END
*D_NET *2925 0.0008208
*CONN
*I *2926:Y O *D _1036
*I *2927:C I *L 0
*CAP
1 2925_1 0.0008208
*RES
1 *2926:Y 2925_1 3.34286
2 2925_1 *2927:C 0
*END
*D_NET *2928 0.000396
*CONN
*I *2929:Y O *D _1039
*I *2930:A I *L 0
*CAP
1 2928_1 0.000396
*RES
1 *2929:Y 2928_1 1.375
2 2928_1 *2930:A 0
*END
*D_NET *2931 0.000648
*CONN
*I *2932:Y O *D _1047
*I *2933:A I *L 0
*CAP
1 2931_1 0.000648
*RES
1 *2932:Y 2931_1 3.07143
2 2931_1 *2933:A 0
*END
*D_NET *2934 0.0024048
*CONN
*I *2935:Y O *D _1048
*I *2936:B I *L 0
*CAP
1 2934_1 0.0024048
*RES
1 *2935:Y 2934_1 9.33571
2 2934_1 *2936:B 0
*END
*D_NET *2937 0.0022176
*CONN
*I *2938:Y O *D _1049
*I *2939:A I *L 0
*CAP
1 2937_1 0.0022176
*RES
1 *2938:Y 2937_1 8.85
2 2937_1 *2939:A 0
*END
*D_NET *2940 0.0008784
*CONN
*I *2941:Y O *D _1050
*I *2942:A I *L 0
*CAP
1 2940_1 0.0008784
*RES
1 *2941:Y 2940_1 3.54286
2 2940_1 *2942:A 0
*END
*D_NET *2943 0.0045216
*CONN
*I *2944:Y O *D _1055
*I *2945:D I *L 0
*CAP
1 2943_1 0.0045216
*RES
1 *2944:Y 2943_1 16.85
2 2943_1 *2945:D 0
*END
*D_NET *2946 0.0024048
*CONN
*I *2947:Y O *D _1057
*I *2948:B I *L 0
*CAP
1 2946_1 0.0024048
*RES
1 *2947:Y 2946_1 11.4714
2 2946_1 *2948:B 0
*END
*D_NET *2949 0.0018864
*CONN
*I *2950:Y O *D _1062
*I *2951:A I *L 0
*CAP
1 2949_1 0.0018864
*RES
1 *2950:Y 2949_1 7.45357
2 2949_1 *2951:A 0
*END
*D_NET *2952 0.0024552
*CONN
*I *2953:Y O *D _1063
*I *2954:D I *L 0
*CAP
1 2952_1 0.0024552
*RES
1 *2953:Y 2952_1 9.18214
2 2952_1 *2954:D 0
*END
*D_NET *2955 0.0017712
*CONN
*I *2956:Y O *D _1064
*I *2957:A I *L 0
*CAP
1 2955_1 0.0017712
*RES
1 *2956:Y 2955_1 6.88929
2 2955_1 *2957:A 0
*END
*D_NET *2958 0.0012024
*CONN
*I *2959:Y O *D _1067
*I *2960:C I *L 0
*CAP
1 2958_1 0.0012024
*RES
1 *2959:Y 2958_1 5.57143
2 2958_1 *2960:C 0
*END
*D_NET *2961 0.0025272
*CONN
*I *2962:Y O *D _1068
*I *2963:D I *L 0
*CAP
1 2961_1 0.0025272
*RES
1 *2962:Y 2961_1 9.84286
2 2961_1 *2963:D 0
*END
*D_NET *2964 0.0007632
*CONN
*I *2965:Y O *D _1069
*I *2966:B I *L 0
*CAP
1 2964_1 0.0007632
*RES
1 *2965:Y 2964_1 3.30714
2 2964_1 *2966:B 0
*END
*D_NET *2967 0.0017784
*CONN
*I *2968:Y O *D _1070
*I *2969:D I *L 0
*CAP
1 2967_1 0.0017784
*RES
1 *2968:Y 2967_1 7.98214
2 2967_1 *2969:D 0
*END
*D_NET *2970 0.0010512
*CONN
*I *2971:Y O *D _1072
*I *2972:C I *L 0
*CAP
1 2970_1 0.0010512
*RES
1 *2971:Y 2970_1 3.89643
2 2970_1 *2972:C 0
*END
*D_NET *2973 0.0043992
*CONN
*I *2974:Y O *D _1073
*I *2975:D I *L 0
*CAP
1 2973_1 0.0043992
*RES
1 *2974:Y 2973_1 17.1643
2 2973_1 *2975:D 0
*END
*D_NET *2976 0.0004032
*CONN
*I *2977:Y O *D _1074
*I *2978:A I *L 0
*CAP
1 2976_1 0.0004032
*RES
1 *2977:Y 2976_1 1.64643
2 2976_1 *2978:A 0
*END
*D_NET *2979 0.0043128
*CONN
*I *2980:Y O *D _1075
*I *2981:D I *L 0
*CAP
1 2979_1 0.0043128
*RES
1 *2980:Y 2979_1 17.1929
2 2979_1 *2981:D 0
*END
*D_NET *2982 0.000252
*CONN
*I *2983:Y O *D _1076
*I *2984:B I *L 0
*CAP
1 2982_1 0.000252
*RES
1 *2983:Y 2982_1 0.875
2 2982_1 *2984:B 0
*END
*D_NET *2985 0.0114264
*CONN
*I *2986:Y O *D _1640
*I *2987:A I *L 0
*CAP
1 2985_1 0.0114264
*RES
1 *2986:Y 2985_1 55.9393
2 2985_1 *2987:A 0
*END
*D_NET *2988 0.0033264
*CONN
*I *2989:Y O *D _1077
*I *2990:C I *L 0
*CAP
1 2988_1 0.0033264
*RES
1 *2989:Y 2988_1 13.3571
2 2988_1 *2990:C 0
*END
*D_NET *2991 0.0008208
*CONN
*I *2992:Y O *D _1079
*I *2993:A I *L 0
*CAP
1 2991_1 0.0008208
*RES
1 *2992:Y 2991_1 3.34286
2 2991_1 *2993:A 0
*END
*D_NET *2994 0.0064728
*CONN
*I *2995:Y O *D _1080
*I *2996:B I *L 0
*CAP
1 2994_1 0.0064728
*RES
1 *2995:Y 2994_1 25.5143
2 2994_1 *2996:B 0
*END
*D_NET *2997 0.0104112
*CONN
*I *2998:Y O *D _1960
*I *2999:B I *L 0
*CAP
1 2997_1 0.0104112
*RES
1 *2998:Y 2997_1 49.5393
2 2997_1 *2999:B 0
*END
*D_NET *3000 0.0011304
*CONN
*I *3001:Y O *D _1081
*I *3002:B I *L 0
*CAP
1 3000_1 0.0011304
*RES
1 *3001:Y 3000_1 4.82857
2 3000_1 *3002:B 0
*END
*D_NET *3003 0.000684
*CONN
*I *3004:Y O *D _1928
*I *3005:B I *L 0
*CAP
1 3003_1 0.000684
*RES
1 *3004:Y 3003_1 3.19643
2 3003_1 *3005:B 0
*END
*D_NET *3006 0.0027576
*CONN
*I *3007:Y O *D _1083
*I *3008:A I *L 0
*CAP
1 3006_1 0.0027576
*RES
1 *3007:Y 3006_1 13.6
2 3006_1 *3008:A 0
*END
*D_NET *3009 0.0025344
*CONN
*I *3010:Y O *D _1933
*I *3011:B I *L 0
*CAP
1 3009_1 0.0025344
*RES
1 *3010:Y 3009_1 11.7571
2 3009_1 *3011:B 0
*END
*D_NET *3012 0.0011808
*CONN
*I *3013:Y O *D _1084
*I *3014:B I *L 0
*CAP
1 3012_1 0.0011808
*RES
1 *3013:Y 3012_1 5.49643
2 3012_1 *3014:B 0
*END
*D_NET *3015 0.0021024
*CONN
*I *3016:Y O *D _1937
*I *3017:B I *L 0
*CAP
1 3015_1 0.0021024
*RES
1 *3016:Y 3015_1 8.20357
2 3015_1 *3017:B 0
*END
*D_NET *3018 0.0011016
*CONN
*I *3019:Y O *D _1085
*I *3020:B I *L 0
*CAP
1 3018_1 0.0011016
*RES
1 *3019:Y 3018_1 5.38571
2 3018_1 *3020:B 0
*END
*D_NET *3021 0.0013536
*CONN
*I *3022:Y O *D _1941
*I *3023:B I *L 0
*CAP
1 3021_1 0.0013536
*RES
1 *3022:Y 3021_1 5.85
2 3021_1 *3023:B 0
*END
*D_NET *3024 0.0035352
*CONN
*I *3025:Y O *D _1086
*I *3026:B I *L 0
*CAP
1 3024_1 0.0035352
*RES
1 *3025:Y 3024_1 15.8071
2 3024_1 *3026:B 0
*END
*D_NET *3027 0.0020304
*CONN
*I *3028:Y O *D _1945
*I *3029:B I *L 0
*CAP
1 3027_1 0.0020304
*RES
1 *3028:Y 3027_1 9.59643
2 3027_1 *3029:B 0
*END
*D_NET *3030 0.0028296
*CONN
*I *3031:Y O *D _1087
*I *3032:B I *L 0
*CAP
1 3030_1 0.0028296
*RES
1 *3031:Y 3030_1 12.2071
2 3030_1 *3032:B 0
*END
*D_NET *3033 0.00198
*CONN
*I *3034:Y O *D _1950
*I *3035:B I *L 0
*CAP
1 3033_1 0.00198
*RES
1 *3034:Y 3033_1 8.92857
2 3033_1 *3035:B 0
*END
*D_NET *3036 0.000504
*CONN
*I *3037:Y O *D _1088
*I *3038:B I *L 0
*CAP
1 3036_1 0.000504
*RES
1 *3037:Y 3036_1 2.16071
2 3036_1 *3038:B 0
*END
*D_NET *3039 0.0015264
*CONN
*I *3040:Y O *D _1955
*I *3041:B I *L 0
*CAP
1 3039_1 0.0015264
*RES
1 *3040:Y 3039_1 6.20357
2 3039_1 *3041:B 0
*END
*D_NET *3042 0.0011808
*CONN
*I *3043:Y O *D _1089
*I *3044:B I *L 0
*CAP
1 3042_1 0.0011808
*RES
1 *3043:Y 3042_1 5.49643
2 3042_1 *3044:B 0
*END
*D_NET *3045 0.0012744
*CONN
*I *3046:Y O *D _1959
*I *3047:B I *L 0
*CAP
1 3045_1 0.0012744
*RES
1 *3046:Y 3045_1 5.32857
2 3045_1 *3047:B 0
*END
*D_NET *3048 0.0005472
*CONN
*I *3049:Y O *D _1090
*I *3050:A I *L 0
*CAP
1 3048_1 0.0005472
*RES
1 *3049:Y 3048_1 2.14643
2 3048_1 *3050:A 0
*END
*D_NET *3051 0.0008856
*CONN
*I *3052:Y O *D _1095
*I *3053:B I *L 0
*CAP
1 3051_1 0.0008856
*RES
1 *3052:Y 3051_1 4.225
2 3051_1 *3053:B 0
*END
*D_NET *3054 0.0004896
*CONN
*I *3055:Y O *D _1098
*I *3056:B I *L 0
*CAP
1 3054_1 0.0004896
*RES
1 *3055:Y 3054_1 2.02857
2 3054_1 *3056:B 0
*END
*D_NET *3057 0.000648
*CONN
*I *3058:Y O *D _1102
*I *3059:A I *L 0
*CAP
1 3057_1 0.000648
*RES
1 *3058:Y 3057_1 3.07143
2 3057_1 *3059:A 0
*END
*D_NET *3060 0.0010728
*CONN
*I *3061:Y O *D _1103
*I *3062:D I *L 0
*CAP
1 3060_1 0.0010728
*RES
1 *3061:Y 3060_1 4.71071
2 3060_1 *3062:D 0
*END
*D_NET *3063 0.00036
*CONN
*I *3064:Y O *D _1107
*I *3065:C I *L 0
*CAP
1 3063_1 0.00036
*RES
1 *3064:Y 3063_1 1.25
2 3063_1 *3065:C 0
*END
*D_NET *3066 0.0020376
*CONN
*I *3067:Y O *D _1110
*I *3068:A I *L 0
*CAP
1 3066_1 0.0020376
*RES
1 *3067:Y 3066_1 9.45714
2 3066_1 *3068:A 0
*END
*D_NET *3069 0.0015408
*CONN
*I *3070:Y O *D _1111
*I *3071:B I *L 0
*CAP
1 3069_1 0.0015408
*RES
1 *3070:Y 3069_1 6.33571
2 3069_1 *3071:B 0
*END
*D_NET *3072 0.000324
*CONN
*I *3073:Y O *D _1112
*I *3074:C I *L 0
*CAP
1 3072_1 0.000324
*RES
1 *3073:Y 3072_1 1.125
2 3072_1 *3074:C 0
*END
*D_NET *3075 0.0006192
*CONN
*I *3076:Y O *D _1113
*I *3077:A I *L 0
*CAP
1 3075_1 0.0006192
*RES
1 *3076:Y 3075_1 2.80714
2 3075_1 *3077:A 0
*END
*D_NET *3078 0.0034704
*CONN
*I *3079:Y O *D _1117
*I *3080:B I *L 0
*CAP
1 3078_1 0.0034704
*RES
1 *3079:Y 3078_1 12.625
2 3078_1 *3080:B 0
*END
*D_NET *3081 0.0009144
*CONN
*I *3082:Y O *D _1121
*I *3083:B I *L 0
*CAP
1 3081_1 0.0009144
*RES
1 *3082:Y 3081_1 4.07857
2 3081_1 *3083:B 0
*END
*D_NET *3084 0.0007344
*CONN
*I *3085:Y O *D _1122
*I *3086:A I *L 0
*CAP
1 3084_1 0.0007344
*RES
1 *3085:Y 3084_1 3.45357
2 3084_1 *3086:A 0
*END
*D_NET *3087 0.0011376
*CONN
*I *3088:Y O *D _1124
*I *3089:A I *L 0
*CAP
1 3087_1 0.0011376
*RES
1 *3088:Y 3087_1 5.1
2 3087_1 *3089:A 0
*END
*D_NET *3090 0.0015336
*CONN
*I *3091:Y O *D _1125
*I *3092:A I *L 0
*CAP
1 3090_1 0.0015336
*RES
1 *3091:Y 3090_1 6.475
2 3090_1 *3092:A 0
*END
*D_NET *3093 0.000972
*CONN
*I *3094:Y O *D _1127
*I *3095:A I *L 0
*CAP
1 3093_1 0.000972
*RES
1 *3094:Y 3093_1 3.78571
2 3093_1 *3095:A 0
*END
*D_NET *3096 0.0005472
*CONN
*I *3097:Y O *D _1128
*I *3098:D I *L 0
*CAP
1 3096_1 0.0005472
*RES
1 *3097:Y 3096_1 2.14643
2 3096_1 *3098:D 0
*END
*D_NET *3099 0.0010656
*CONN
*I *3100:Y O *D _1132
*I *3101:A I *L 0
*CAP
1 3099_1 0.0010656
*RES
1 *3100:Y 3099_1 4.60357
2 3099_1 *3101:A 0
*END
*D_NET *3102 0.0005832
*CONN
*I *3103:Y O *D _1133
*I *3104:D I *L 0
*CAP
1 3102_1 0.0005832
*RES
1 *3103:Y 3102_1 2.27143
2 3102_1 *3104:D 0
*END
*D_NET *3105 0.0001512
*CONN
*I *3106:Q O *D _1525
*I *3107:A I *L 0
*CAP
1 3105_1 0.0001512
*RES
1 *3106:Q 3105_1 0.771429
2 3105_1 *3107:A 0
*END
*D_NET *3108 0.0005472
*CONN
*I *3109:Y O *D _1136
*I *3110:B I *L 0
*CAP
1 3108_1 0.0005472
*RES
1 *3109:Y 3108_1 2.14643
2 3108_1 *3110:B 0
*END
*D_NET *3111 0.0010152
*CONN
*I *3112:Y O *D _1138
*I *3113:A I *L 0
*CAP
1 3111_1 0.0010152
*RES
1 *3112:Y 3111_1 4.75714
2 3111_1 *3113:A 0
*END
*D_NET *3114 0.0009144
*CONN
*I *3115:Y O *D _1139
*I *3116:C I *L 0
*CAP
1 3114_1 0.0009144
*RES
1 *3115:Y 3114_1 3.66786
2 3114_1 *3116:C 0
*END
*D_NET *3117 0.000576
*CONN
*I *3118:Y O *D _1140
*I *3119:B I *L 0
*CAP
1 3117_1 0.000576
*RES
1 *3118:Y 3117_1 2
2 3117_1 *3119:B 0
*END
*D_NET *3120 0.0015408
*CONN
*I *3121:Y O *D _1141
*I *3122:A I *L 0
*CAP
1 3120_1 0.0015408
*RES
1 *3121:Y 3120_1 7.56786
2 3120_1 *3122:A 0
*END
*D_NET *3123 0.0007056
*CONN
*I *3124:Y O *D _1142
*I *3125:A I *L 0
*CAP
1 3123_1 0.0007056
*RES
1 *3124:Y 3123_1 3.6
2 3123_1 *3125:A 0
*END
*D_NET *3126 0.0007272
*CONN
*I *3127:Y O *D _1143
*I *3128:D I *L 0
*CAP
1 3126_1 0.0007272
*RES
1 *3127:Y 3126_1 2.77143
2 3126_1 *3128:D 0
*END
*D_NET *3129 0.0017424
*CONN
*I *3130:Y O *D _1148
*I *3131:A I *L 0
*CAP
1 3129_1 0.0017424
*RES
1 *3130:Y 3129_1 8.59643
2 3129_1 *3131:A 0
*END
*D_NET *3132 0.0020088
*CONN
*I *3133:Y O *D _1149
*I *3134:B I *L 0
*CAP
1 3132_1 0.0020088
*RES
1 *3133:Y 3132_1 8.04286
2 3132_1 *3134:B 0
*END
*D_NET *3135 0.00036
*CONN
*I *3136:Y O *D _1150
*I *3137:B I *L 0
*CAP
1 3135_1 0.00036
*RES
1 *3136:Y 3135_1 1.25
2 3135_1 *3137:B 0
*END
*D_NET *3138 0.0014328
*CONN
*I *3139:Y O *D _1152
*I *3140:A I *L 0
*CAP
1 3138_1 0.0014328
*RES
1 *3139:Y 3138_1 6.37143
2 3138_1 *3140:A 0
*END
*D_NET *3141 0.0006552
*CONN
*I *3142:Y O *D _1154
*I *3143:A I *L 0
*CAP
1 3141_1 0.0006552
*RES
1 *3142:Y 3141_1 2.93214
2 3141_1 *3143:A 0
*END
*D_NET *3144 0.0012384
*CONN
*I *3145:Y O *D _1155
*I *3146:D I *L 0
*CAP
1 3144_1 0.0012384
*RES
1 *3145:Y 3144_1 5.20357
2 3144_1 *3146:D 0
*END
*D_NET *3147 0.0006552
*CONN
*I *3148:Y O *D _1156
*I *3149:C I *L 0
*CAP
1 3147_1 0.0006552
*RES
1 *3148:Y 3147_1 2.68571
2 3147_1 *3149:C 0
*END
*D_NET *3150 0.000504
*CONN
*I *3151:Y O *D _1157
*I *3152:A I *L 0
*CAP
1 3150_1 0.000504
*RES
1 *3151:Y 3150_1 2.57143
2 3150_1 *3152:A 0
*END
*D_NET *3153 0.000612
*CONN
*I *3154:Y O *D _1158
*I *3155:D I *L 0
*CAP
1 3153_1 0.000612
*RES
1 *3154:Y 3153_1 2.53571
2 3153_1 *3155:D 0
*END
*D_NET *3156 0.0010584
*CONN
*I *3157:Y O *D _1159
*I *3158:C I *L 0
*CAP
1 3156_1 0.0010584
*RES
1 *3157:Y 3156_1 4.98929
2 3156_1 *3158:C 0
*END
*D_NET *3159 0.000288
*CONN
*I *3160:Y O *D _1160
*I *3161:B I *L 0
*CAP
1 3159_1 0.000288
*RES
1 *3160:Y 3159_1 1
2 3159_1 *3161:B 0
*END
*D_NET *3162 0.0012168
*CONN
*I *3163:Y O *D _1161
*I *3164:D I *L 0
*CAP
1 3162_1 0.0012168
*RES
1 *3163:Y 3162_1 5.62143
2 3162_1 *3164:D 0
*END
*D_NET *3165 0.0009144
*CONN
*I *3166:Y O *D _1165
*I *3167:A I *L 0
*CAP
1 3165_1 0.0009144
*RES
1 *3166:Y 3165_1 4.07857
2 3165_1 *3167:A 0
*END
*D_NET *3168 0.0013968
*CONN
*I *3169:Y O *D _1166
*I *3170:D I *L 0
*CAP
1 3168_1 0.0013968
*RES
1 *3169:Y 3168_1 6.24643
2 3168_1 *3170:D 0
*END
*D_NET *3171 0.0012168
*CONN
*I *3172:Y O *D _1167
*I *3173:B I *L 0
*CAP
1 3171_1 0.0012168
*RES
1 *3172:Y 3171_1 5.21071
2 3171_1 *3173:B 0
*END
*D_NET *3174 0.000468
*CONN
*I *3175:Y O *D _1169
*I *3176:A I *L 0
*CAP
1 3174_1 0.000468
*RES
1 *3175:Y 3174_1 2.03571
2 3174_1 *3176:A 0
*END
*D_NET *3177 0.000324
*CONN
*I *3178:Y O *D _1170
*I *3179:D I *L 0
*CAP
1 3177_1 0.000324
*RES
1 *3178:Y 3177_1 1.125
2 3177_1 *3179:D 0
*END
*D_NET *3180 0.0004752
*CONN
*I *3181:Y O *D _1173
*I *3182:C I *L 0
*CAP
1 3180_1 0.0004752
*RES
1 *3181:Y 3180_1 1.89643
2 3180_1 *3182:C 0
*END
*D_NET *3183 0.002196
*CONN
*I *3184:Y O *D _1174
*I *3185:D I *L 0
*CAP
1 3183_1 0.002196
*RES
1 *3184:Y 3183_1 9.10357
2 3183_1 *3185:D 0
*END
*D_NET *3186 0.0009144
*CONN
*I *3187:Y O *D _1176
*I *3188:A I *L 0
*CAP
1 3186_1 0.0009144
*RES
1 *3187:Y 3186_1 3.66786
2 3186_1 *3188:A 0
*END
*D_NET *3189 0.000288
*CONN
*I *3190:Y O *D _1178
*I *3191:B I *L 0
*CAP
1 3189_1 0.000288
*RES
1 *3190:Y 3189_1 1
2 3189_1 *3191:B 0
*END
*D_NET *3192 0.0010656
*CONN
*I *3193:Y O *D _1179
*I *3194:D I *L 0
*CAP
1 3192_1 0.0010656
*RES
1 *3193:Y 3192_1 4.85
2 3192_1 *3194:D 0
*END
*D_NET *3195 0.0008568
*CONN
*I *3196:Y O *D _1181
*I *3197:B I *L 0
*CAP
1 3195_1 0.0008568
*RES
1 *3196:Y 3195_1 4.37143
2 3195_1 *3197:B 0
*END
*D_NET *3198 0.000288
*CONN
*I *3199:Y O *D _1182
*I *3200:B I *L 0
*CAP
1 3198_1 0.000288
*RES
1 *3199:Y 3198_1 1
2 3198_1 *3200:B 0
*END
*D_NET *3201 0.0020232
*CONN
*I *3202:Y O *D _1183
*I *3203:D I *L 0
*CAP
1 3201_1 0.0020232
*RES
1 *3202:Y 3201_1 9.73571
2 3201_1 *3203:D 0
*END
*D_NET *3204 0.0014184
*CONN
*I *3205:Y O *D _1184
*I *3206:A I *L 0
*CAP
1 3204_1 0.0014184
*RES
1 *3205:Y 3204_1 5.82857
2 3204_1 *3206:A 0
*END
*D_NET *3207 0.00036
*CONN
*I *3208:Y O *D _1186
*I *3209:B I *L 0
*CAP
1 3207_1 0.00036
*RES
1 *3208:Y 3207_1 1.25
2 3207_1 *3209:B 0
*END
*D_NET *3210 0.0008928
*CONN
*I *3211:Y O *D _1187
*I *3212:A I *L 0
*CAP
1 3210_1 0.0008928
*RES
1 *3211:Y 3210_1 4.08571
2 3210_1 *3212:A 0
*END
*D_NET *3213 0.000504
*CONN
*I *3214:Y O *D _1188
*I *3215:D I *L 0
*CAP
1 3213_1 0.000504
*RES
1 *3214:Y 3213_1 1.75
2 3213_1 *3215:D 0
*END
*D_NET *3216 0.0006912
*CONN
*I *3217:Y O *D _1190
*I *3218:A I *L 0
*CAP
1 3216_1 0.0006912
*RES
1 *3217:Y 3216_1 3.05714
2 3216_1 *3218:A 0
*END
*D_NET *3219 0.0012888
*CONN
*I *3220:Y O *D _1191
*I *3221:D I *L 0
*CAP
1 3219_1 0.0012888
*RES
1 *3220:Y 3219_1 5.46071
2 3219_1 *3221:D 0
*END
*D_NET *3222 0.0009072
*CONN
*I *3223:Y O *D _1192
*I *3224:A I *L 0
*CAP
1 3222_1 0.0009072
*RES
1 *3223:Y 3222_1 3.64286
2 3222_1 *3224:A 0
*END
*D_NET *3225 0.000828
*CONN
*I *3226:Y O *D _1194
*I *3227:B I *L 0
*CAP
1 3225_1 0.000828
*RES
1 *3226:Y 3225_1 2.875
2 3225_1 *3227:B 0
*END
*D_NET *3228 0.0008064
*CONN
*I *3229:Y O *D _1195
*I *3230:A I *L 0
*CAP
1 3228_1 0.0008064
*RES
1 *3229:Y 3228_1 4.11429
2 3228_1 *3230:A 0
*END
*D_NET *3231 0.000216
*CONN
*I *3232:Y O *D _1196
*I *3233:D I *L 0
*CAP
1 3231_1 0.000216
*RES
1 *3232:Y 3231_1 0.75
2 3231_1 *3233:D 0
*END
*D_NET *3234 0.0010512
*CONN
*I *3235:Y O *D _1197
*I *3236:C I *L 0
*CAP
1 3234_1 0.0010512
*RES
1 *3235:Y 3234_1 4.30714
2 3234_1 *3236:C 0
*END
*D_NET *3237 0.0005472
*CONN
*I *3238:Y O *D _1198
*I *3239:D I *L 0
*CAP
1 3237_1 0.0005472
*RES
1 *3238:Y 3237_1 2.14643
2 3237_1 *3239:D 0
*END
*D_NET *3240 0.0005112
*CONN
*I *3241:Y O *D _1199
*I *3242:C I *L 0
*CAP
1 3240_1 0.0005112
*RES
1 *3241:Y 3240_1 2.02143
2 3240_1 *3242:C 0
*END
*D_NET *3243 0.0009072
*CONN
*I *3244:Y O *D _1200
*I *3245:B I *L 0
*CAP
1 3243_1 0.0009072
*RES
1 *3244:Y 3243_1 3.64286
2 3243_1 *3245:B 0
*END
*D_NET *3246 0.000324
*CONN
*I *3247:Y O *D _1201
*I *3248:B I *L 0
*CAP
1 3246_1 0.000324
*RES
1 *3247:Y 3246_1 1.125
2 3246_1 *3248:B 0
*END
*D_NET *3249 0.0004752
*CONN
*I *3250:Y O *D _1204
*I *3251:C I *L 0
*CAP
1 3249_1 0.0004752
*RES
1 *3250:Y 3249_1 1.89643
2 3249_1 *3251:C 0
*END
*D_NET *3252 0.0010728
*CONN
*I *3253:Y O *D _1205
*I *3254:A I *L 0
*CAP
1 3252_1 0.0010728
*RES
1 *3253:Y 3252_1 4.62857
2 3252_1 *3254:A 0
*END
*D_NET *3255 0.0004752
*CONN
*I *3256:Y O *D _1206
*I *3257:A I *L 0
*CAP
1 3255_1 0.0004752
*RES
1 *3256:Y 3255_1 1.89643
2 3255_1 *3257:A 0
*END
*D_NET *3258 0.0003528
*CONN
*I *3259:Y O *D _1207
*I *3260:C I *L 0
*CAP
1 3258_1 0.0003528
*RES
1 *3259:Y 3258_1 1.38929
2 3258_1 *3260:C 0
*END
*D_NET *3261 0.0009864
*CONN
*I *3262:Y O *D _1210
*I *3263:B I *L 0
*CAP
1 3261_1 0.0009864
*RES
1 *3262:Y 3261_1 4.73929
2 3261_1 *3263:B 0
*END
*D_NET *3264 0.0009216
*CONN
*I *3265:Y O *D _1211
*I *3266:D I *L 0
*CAP
1 3264_1 0.0009216
*RES
1 *3265:Y 3264_1 3.52857
2 3264_1 *3266:D 0
*END
*D_NET *3267 0.0004392
*CONN
*I *3268:Y O *D _1212
*I *3269:A I *L 0
*CAP
1 3267_1 0.0004392
*RES
1 *3268:Y 3267_1 1.77143
2 3267_1 *3269:A 0
*END
*D_NET *3270 0.0004752
*CONN
*I *3271:Y O *D _1215
*I *3272:A I *L 0
*CAP
1 3270_1 0.0004752
*RES
1 *3271:Y 3270_1 1.89643
2 3270_1 *3272:A 0
*END
*D_NET *3273 0.001188
*CONN
*I *3274:Y O *D _1217
*I *3275:C I *L 0
*CAP
1 3273_1 0.001188
*RES
1 *3274:Y 3273_1 5.35714
2 3273_1 *3275:C 0
*END
*D_NET *3276 0.0004896
*CONN
*I *3277:Y O *D _1218
*I *3278:C I *L 0
*CAP
1 3276_1 0.0004896
*RES
1 *3277:Y 3276_1 2.02857
2 3276_1 *3278:C 0
*END
*D_NET *3279 0.000864
*CONN
*I *3280:Y O *D _1219
*I *3281:C I *L 0
*CAP
1 3279_1 0.000864
*RES
1 *3280:Y 3279_1 4.23214
2 3279_1 *3281:C 0
*END
*D_NET *3282 0.0009504
*CONN
*I *3283:Y O *D _1220
*I *3284:B I *L 0
*CAP
1 3282_1 0.0009504
*RES
1 *3283:Y 3282_1 4.20357
2 3282_1 *3284:B 0
*END
*D_NET *3285 0.0028944
*CONN
*I *3286:Y O *D _1221
*I *3287:B I *L 0
*CAP
1 3285_1 0.0028944
*RES
1 *3286:Y 3285_1 13.8286
2 3285_1 *3287:B 0
*END
*D_NET *3288 0.0007056
*CONN
*I *3289:Y O *D _1222
*I *3290:A I *L 0
*CAP
1 3288_1 0.0007056
*RES
1 *3289:Y 3288_1 3.6
2 3288_1 *3290:A 0
*END
*D_NET *3291 0.0011448
*CONN
*I *3292:Y O *D _1223
*I *3293:D I *L 0
*CAP
1 3291_1 0.0011448
*RES
1 *3292:Y 3291_1 5.37143
2 3291_1 *3293:D 0
*END
*D_NET *3294 0.0007992
*CONN
*I *3295:Y O *D _1224
*I *3296:B I *L 0
*CAP
1 3294_1 0.0007992
*RES
1 *3295:Y 3294_1 3.43214
2 3294_1 *3296:B 0
*END
*D_NET *3297 0.000504
*CONN
*I *3298:Y O *D _1225
*I *3299:D I *L 0
*CAP
1 3297_1 0.000504
*RES
1 *3298:Y 3297_1 1.75
2 3297_1 *3299:D 0
*END
*D_NET *3300 0.0008208
*CONN
*I *3301:Y O *D _1226
*I *3302:B I *L 0
*CAP
1 3300_1 0.0008208
*RES
1 *3301:Y 3300_1 3.34286
2 3300_1 *3302:B 0
*END
*D_NET *3303 0.000504
*CONN
*I *3304:Y O *D _1229
*I *3305:C I *L 0
*CAP
1 3303_1 0.000504
*RES
1 *3304:Y 3303_1 1.75
2 3303_1 *3305:C 0
*END
*D_NET *3306 0.000252
*CONN
*I *3307:Y O *D _1230
*I *3308:A I *L 0
*CAP
1 3306_1 0.000252
*RES
1 *3307:Y 3306_1 0.875
2 3306_1 *3308:A 0
*END
*D_NET *3309 0.0006912
*CONN
*I *3310:Y O *D _1231
*I *3311:C I *L 0
*CAP
1 3309_1 0.0006912
*RES
1 *3310:Y 3309_1 3.05714
2 3309_1 *3311:C 0
*END
*D_NET *3312 0.0014184
*CONN
*I *3313:Y O *D _1232
*I *3314:D I *L 0
*CAP
1 3312_1 0.0014184
*RES
1 *3313:Y 3312_1 5.82857
2 3312_1 *3314:D 0
*END
*D_NET *3315 0.0012672
*CONN
*I *3316:Y O *D _1233
*I *3317:B I *L 0
*CAP
1 3315_1 0.0012672
*RES
1 *3316:Y 3315_1 5.46786
2 3315_1 *3317:B 0
*END
*D_NET *3318 0.0009288
*CONN
*I *3319:Y O *D _1234
*I *3320:A I *L 0
*CAP
1 3318_1 0.0009288
*RES
1 *3319:Y 3318_1 3.47143
2 3318_1 *3320:A 0
*END
*D_NET *3321 0.0012024
*CONN
*I *3322:Y O *D _1235
*I *3323:D I *L 0
*CAP
1 3321_1 0.0012024
*RES
1 *3322:Y 3321_1 5.48929
2 3321_1 *3323:D 0
*END
*D_NET *3324 0.0007848
*CONN
*I *3325:Y O *D _1236
*I *3326:B I *L 0
*CAP
1 3324_1 0.0007848
*RES
1 *3325:Y 3324_1 3.71071
2 3324_1 *3326:B 0
*END
*D_NET *3327 0.000612
*CONN
*I *3328:Y O *D _1237
*I *3329:D I *L 0
*CAP
1 3327_1 0.000612
*RES
1 *3328:Y 3327_1 2.125
2 3327_1 *3329:D 0
*END
*D_NET *3330 0.0014832
*CONN
*I *3331:Y O *D _1239
*I *3332:B I *L 0
*CAP
1 3330_1 0.0014832
*RES
1 *3331:Y 3330_1 6.62857
2 3330_1 *3332:B 0
*END
*D_NET *3333 0.0009144
*CONN
*I *3334:Y O *D _1241
*I *3335:B I *L 0
*CAP
1 3333_1 0.0009144
*RES
1 *3334:Y 3333_1 4.07857
2 3333_1 *3335:B 0
*END
*D_NET *3336 0.0031896
*CONN
*I *3337:Y O *D _1242
*I *3338:D I *L 0
*CAP
1 3336_1 0.0031896
*RES
1 *3337:Y 3336_1 13.0464
2 3336_1 *3338:D 0
*END
*D_NET *3339 0.000288
*CONN
*I *3340:Y O *D _1246
*I *3341:A I *L 0
*CAP
1 3339_1 0.000288
*RES
1 *3340:Y 3339_1 1
2 3339_1 *3341:A 0
*END
*D_NET *3342 0.0009432
*CONN
*I *3343:Y O *D _1247
*I *3344:B I *L 0
*CAP
1 3342_1 0.0009432
*RES
1 *3343:Y 3342_1 4.34286
2 3342_1 *3344:B 0
*END
*D_NET *3345 0.0017208
*CONN
*I *3346:Y O *D _1248
*I *3347:A I *L 0
*CAP
1 3345_1 0.0017208
*RES
1 *3346:Y 3345_1 6.96071
2 3345_1 *3347:A 0
*END
*D_NET *3348 0.0007704
*CONN
*I *3349:Y O *D _1249
*I *3350:D I *L 0
*CAP
1 3348_1 0.0007704
*RES
1 *3349:Y 3348_1 3.57857
2 3348_1 *3350:D 0
*END
*D_NET *3351 0.00072
*CONN
*I *3352:Y O *D _1250
*I *3353:B I *L 0
*CAP
1 3351_1 0.00072
*RES
1 *3352:Y 3351_1 3.32143
2 3351_1 *3353:B 0
*END
*D_NET *3354 0.000504
*CONN
*I *3355:Y O *D _1254
*I *3356:B I *L 0
*CAP
1 3354_1 0.000504
*RES
1 *3355:Y 3354_1 2.57143
2 3354_1 *3356:B 0
*END
*D_NET *3357 0.0016848
*CONN
*I *3358:Y O *D _1255
*I *3359:D I *L 0
*CAP
1 3357_1 0.0016848
*RES
1 *3358:Y 3357_1 7.24643
2 3357_1 *3359:D 0
*END
*D_NET *3360 0.0008352
*CONN
*I *3361:Y O *D _1256
*I *3362:A I *L 0
*CAP
1 3360_1 0.0008352
*RES
1 *3361:Y 3360_1 3.31071
2 3360_1 *3362:A 0
*END
*D_NET *3363 0.0010512
*CONN
*I *3364:Y O *D _1257
*I *3365:B I *L 0
*CAP
1 3363_1 0.0010512
*RES
1 *3364:Y 3363_1 4.71786
2 3363_1 *3365:B 0
*END
*D_NET *3366 0.001188
*CONN
*I *3367:Y O *D _1258
*I *3368:A I *L 0
*CAP
1 3366_1 0.001188
*RES
1 *3367:Y 3366_1 4.94643
2 3366_1 *3368:A 0
*END
*D_NET *3369 0.000864
*CONN
*I *3370:Y O *D _1259
*I *3371:D I *L 0
*CAP
1 3369_1 0.000864
*RES
1 *3370:Y 3369_1 3.41071
2 3369_1 *3371:D 0
*END
*D_NET *3372 0.000612
*CONN
*I *3373:Y O *D _1263
*I *3374:B I *L 0
*CAP
1 3372_1 0.000612
*RES
1 *3373:Y 3372_1 2.94643
2 3372_1 *3374:B 0
*END
*D_NET *3375 0.0006912
*CONN
*I *3376:Y O *D _1264
*I *3377:A I *L 0
*CAP
1 3375_1 0.0006912
*RES
1 *3376:Y 3375_1 2.64643
2 3375_1 *3377:A 0
*END
*D_NET *3378 0.000612
*CONN
*I *3379:Y O *D _1265
*I *3380:B I *L 0
*CAP
1 3378_1 0.000612
*RES
1 *3379:Y 3378_1 2.94643
2 3378_1 *3380:B 0
*END
*D_NET *3381 0.0005544
*CONN
*I *3382:Y O *D _1266
*I *3383:C I *L 0
*CAP
1 3381_1 0.0005544
*RES
1 *3382:Y 3381_1 2.41786
2 3381_1 *3383:C 0
*END
*D_NET *3384 0.000468
*CONN
*I *3385:Y O *D _1267
*I *3386:B I *L 0
*CAP
1 3384_1 0.000468
*RES
1 *3385:Y 3384_1 1.625
2 3384_1 *3386:B 0
*END
*D_NET *3387 0.0010512
*CONN
*I *3388:Y O *D _1268
*I *3389:C I *L 0
*CAP
1 3387_1 0.0010512
*RES
1 *3388:Y 3387_1 4.30714
2 3387_1 *3389:C 0
*END
*D_NET *3390 0.0013968
*CONN
*I *3391:Y O *D _1269
*I *3392:B I *L 0
*CAP
1 3390_1 0.0013968
*RES
1 *3391:Y 3390_1 6.24643
2 3390_1 *3392:B 0
*END
*D_NET *3393 0.0007632
*CONN
*I *3394:Y O *D _1270
*I *3395:D I *L 0
*CAP
1 3393_1 0.0007632
*RES
1 *3394:Y 3393_1 3.30714
2 3393_1 *3395:D 0
*END
*D_NET *3396 0.0018216
*CONN
*I *3397:Y O *D _1274
*I *3398:A I *L 0
*CAP
1 3396_1 0.0018216
*RES
1 *3397:Y 3396_1 7.06429
2 3396_1 *3398:A 0
*END
*D_NET *3399 0.0011088
*CONN
*I *3400:Y O *D _1276
*I *3401:C I *L 0
*CAP
1 3399_1 0.0011088
*RES
1 *3400:Y 3399_1 5.24643
2 3399_1 *3401:C 0
*END
*D_NET *3402 0.0009072
*CONN
*I *3403:Y O *D _1277
*I *3404:B I *L 0
*CAP
1 3402_1 0.0009072
*RES
1 *3403:Y 3402_1 4.21786
2 3402_1 *3404:B 0
*END
*D_NET *3405 0.000324
*CONN
*I *3406:Y O *D _1278
*I *3407:B I *L 0
*CAP
1 3405_1 0.000324
*RES
1 *3406:Y 3405_1 1.125
2 3405_1 *3407:B 0
*END
*D_NET *3408 0.0017568
*CONN
*I *3409:Y O *D _1279
*I *3410:C I *L 0
*CAP
1 3408_1 0.0017568
*RES
1 *3409:Y 3408_1 7.49643
2 3408_1 *3410:C 0
*END
*D_NET *3411 0.0004752
*CONN
*I *3412:Y O *D _1280
*I *3413:D I *L 0
*CAP
1 3411_1 0.0004752
*RES
1 *3412:Y 3411_1 1.89643
2 3411_1 *3413:D 0
*END
*D_NET *3414 0.0025416
*CONN
*I *3415:Y O *D _1281
*I *3416:A I *L 0
*CAP
1 3414_1 0.0025416
*RES
1 *3415:Y 3414_1 10.8786
2 3414_1 *3416:A 0
*END
*D_NET *3417 0.0006264
*CONN
*I *3418:Y O *D _1282
*I *3419:A I *L 0
*CAP
1 3417_1 0.0006264
*RES
1 *3418:Y 3417_1 2.66786
2 3417_1 *3419:A 0
*END
*D_NET *3420 0.0007992
*CONN
*I *3421:Y O *D _1283
*I *3422:C I *L 0
*CAP
1 3420_1 0.0007992
*RES
1 *3421:Y 3420_1 3.43214
2 3420_1 *3422:C 0
*END
*D_NET *3423 0.000756
*CONN
*I *3424:Y O *D _1284
*I *3425:B I *L 0
*CAP
1 3423_1 0.000756
*RES
1 *3424:Y 3423_1 3.44643
2 3423_1 *3425:B 0
*END
*D_NET *3426 0.0017424
*CONN
*I *3427:Y O *D _1285
*I *3428:D I *L 0
*CAP
1 3426_1 0.0017424
*RES
1 *3427:Y 3426_1 7.775
2 3426_1 *3428:D 0
*END
*D_NET *3429 0.0008784
*CONN
*I *3430:Y O *D _1287
*I *3431:B I *L 0
*CAP
1 3429_1 0.0008784
*RES
1 *3430:Y 3429_1 3.54286
2 3429_1 *3431:B 0
*END
*D_NET *3432 0.0015552
*CONN
*I *3433:Y O *D _1291
*I *3434:C I *L 0
*CAP
1 3432_1 0.0015552
*RES
1 *3433:Y 3432_1 6.46786
2 3432_1 *3434:C 0
*END
*D_NET *3435 0.0007416
*CONN
*I *3436:Y O *D _1292
*I *3437:B I *L 0
*CAP
1 3435_1 0.0007416
*RES
1 *3436:Y 3435_1 2.98571
2 3435_1 *3437:B 0
*END
*D_NET *3438 0.0005472
*CONN
*I *3439:Y O *D _1293
*I *3440:C I *L 0
*CAP
1 3438_1 0.0005472
*RES
1 *3439:Y 3438_1 2.14643
2 3438_1 *3440:C 0
*END
*D_NET *3441 0.0013824
*CONN
*I *3442:Y O *D _1294
*I *3443:C I *L 0
*CAP
1 3441_1 0.0013824
*RES
1 *3442:Y 3441_1 5.70357
2 3441_1 *3443:C 0
*END
*D_NET *3444 0.0007632
*CONN
*I *3445:Y O *D _1295
*I *3446:A I *L 0
*CAP
1 3444_1 0.0007632
*RES
1 *3445:Y 3444_1 3.30714
2 3444_1 *3446:A 0
*END
*D_NET *3447 0.000936
*CONN
*I *3448:Y O *D _1296
*I *3449:A I *L 0
*CAP
1 3447_1 0.000936
*RES
1 *3448:Y 3447_1 4.48214
2 3447_1 *3449:A 0
*END
*D_NET *3450 0.001764
*CONN
*I *3451:Y O *D _1297
*I *3452:C I *L 0
*CAP
1 3450_1 0.001764
*RES
1 *3451:Y 3450_1 7.76786
2 3450_1 *3452:C 0
*END
*D_NET *3453 0.001332
*CONN
*I *3454:Y O *D _1298
*I *3455:B I *L 0
*CAP
1 3453_1 0.001332
*RES
1 *3454:Y 3453_1 5.52857
2 3453_1 *3455:B 0
*END
*D_NET *3456 0.001152
*CONN
*I *3457:Y O *D _1299
*I *3458:D I *L 0
*CAP
1 3456_1 0.001152
*RES
1 *3457:Y 3456_1 4.82143
2 3456_1 *3458:D 0
*END
*D_NET *3459 0.000468
*CONN
*I *3460:Y O *D _1302
*I *3461:A I *L 0
*CAP
1 3459_1 0.000468
*RES
1 *3460:Y 3459_1 2.03571
2 3459_1 *3461:A 0
*END
*D_NET *3462 0.000504
*CONN
*I *3463:Y O *D _1305
*I *3464:C I *L 0
*CAP
1 3462_1 0.000504
*RES
1 *3463:Y 3462_1 1.75
2 3462_1 *3464:C 0
*END
*D_NET *3465 0.00036
*CONN
*I *3466:Y O *D _1306
*I *3467:A I *L 0
*CAP
1 3465_1 0.00036
*RES
1 *3466:Y 3465_1 1.25
2 3465_1 *3467:A 0
*END
*D_NET *3468 0.000612
*CONN
*I *3469:Y O *D _1307
*I *3470:C I *L 0
*CAP
1 3468_1 0.000612
*RES
1 *3469:Y 3468_1 2.125
2 3468_1 *3470:C 0
*END
*D_NET *3471 0.0007992
*CONN
*I *3472:Y O *D _1308
*I *3473:D I *L 0
*CAP
1 3471_1 0.0007992
*RES
1 *3472:Y 3471_1 3.02143
2 3471_1 *3473:D 0
*END
*D_NET *3474 0.0016488
*CONN
*I *3475:Y O *D _1309
*I *3476:B I *L 0
*CAP
1 3474_1 0.0016488
*RES
1 *3475:Y 3474_1 7.94286
2 3474_1 *3476:B 0
*END
*D_NET *3477 0.0007416
*CONN
*I *3478:Y O *D _1310
*I *3479:A I *L 0
*CAP
1 3477_1 0.0007416
*RES
1 *3478:Y 3477_1 3.06786
2 3477_1 *3479:A 0
*END
*D_NET *3480 0.0013752
*CONN
*I *3481:Y O *D _1311
*I *3482:C I *L 0
*CAP
1 3480_1 0.0013752
*RES
1 *3481:Y 3480_1 6.00714
2 3480_1 *3482:C 0
*END
*D_NET *3483 0.0009072
*CONN
*I *3484:Y O *D _1312
*I *3485:B I *L 0
*CAP
1 3483_1 0.0009072
*RES
1 *3484:Y 3483_1 4.21786
2 3483_1 *3485:B 0
*END
*D_NET *3486 0.0012888
*CONN
*I *3487:Y O *D _1313
*I *3488:D I *L 0
*CAP
1 3486_1 0.0012888
*RES
1 *3487:Y 3486_1 6.28214
2 3486_1 *3488:D 0
*END
*D_NET *3489 0.0006984
*CONN
*I *3490:Y O *D _1314
*I *3491:A I *L 0
*CAP
1 3489_1 0.0006984
*RES
1 *3490:Y 3489_1 2.91786
2 3489_1 *3491:A 0
*END
*D_NET *3492 0.0028152
*CONN
*I *3493:Y O *D _1315
*I *3494:B I *L 0
*CAP
1 3492_1 0.0028152
*RES
1 *3493:Y 3492_1 11.0893
2 3492_1 *3494:B 0
*END
*D_NET *3495 0.0007344
*CONN
*I *3496:Y O *D _1317
*I *3497:B I *L 0
*CAP
1 3495_1 0.0007344
*RES
1 *3496:Y 3495_1 3.04286
2 3495_1 *3497:B 0
*END
*D_NET *3498 0.0008352
*CONN
*I *3499:Y O *D _1319
*I *3500:C I *L 0
*CAP
1 3498_1 0.0008352
*RES
1 *3499:Y 3498_1 3.55714
2 3498_1 *3500:C 0
*END
*D_NET *3501 0.000252
*CONN
*I *3502:Y O *D _1320
*I *3503:A I *L 0
*CAP
1 3501_1 0.000252
*RES
1 *3502:Y 3501_1 0.875
2 3501_1 *3503:A 0
*END
*D_NET *3504 0.000576
*CONN
*I *3505:Y O *D _1321
*I *3506:C I *L 0
*CAP
1 3504_1 0.000576
*RES
1 *3505:Y 3504_1 2
2 3504_1 *3506:C 0
*END
*D_NET *3507 0.0005112
*CONN
*I *3508:Y O *D _1322
*I *3509:D I *L 0
*CAP
1 3507_1 0.0005112
*RES
1 *3508:Y 3507_1 2.02143
2 3507_1 *3509:D 0
*END
*D_NET *3510 0.0016056
*CONN
*I *3511:Y O *D _1323
*I *3512:B I *L 0
*CAP
1 3510_1 0.0016056
*RES
1 *3511:Y 3510_1 7.95714
2 3510_1 *3512:B 0
*END
*D_NET *3513 0.0008136
*CONN
*I *3514:Y O *D _1324
*I *3515:A I *L 0
*CAP
1 3513_1 0.0008136
*RES
1 *3514:Y 3513_1 3.56429
2 3513_1 *3515:A 0
*END
*D_NET *3516 0.000216
*CONN
*I *3517:Y O *D _1325
*I *3518:C I *L 0
*CAP
1 3516_1 0.000216
*RES
1 *3517:Y 3516_1 0.75
2 3516_1 *3518:C 0
*END
*D_NET *3519 0.001548
*CONN
*I *3520:Y O *D _1326
*I *3521:B I *L 0
*CAP
1 3519_1 0.001548
*RES
1 *3520:Y 3519_1 7.01786
2 3519_1 *3521:B 0
*END
*D_NET *3522 0.0006912
*CONN
*I *3523:Y O *D _1327
*I *3524:D I *L 0
*CAP
1 3522_1 0.0006912
*RES
1 *3523:Y 3522_1 2.64643
2 3522_1 *3524:D 0
*END
*D_NET *3525 0.0012456
*CONN
*I *3526:Y O *D _1330
*I *3527:C I *L 0
*CAP
1 3525_1 0.0012456
*RES
1 *3526:Y 3525_1 4.73571
2 3525_1 *3527:C 0
*END
*D_NET *3528 0.000432
*CONN
*I *3529:Y O *D _1332
*I *3530:C I *L 0
*CAP
1 3528_1 0.000432
*RES
1 *3529:Y 3528_1 1.5
2 3528_1 *3530:C 0
*END
*D_NET *3531 0.000684
*CONN
*I *3532:Y O *D _1333
*I *3533:B I *L 0
*CAP
1 3531_1 0.000684
*RES
1 *3532:Y 3531_1 2.78571
2 3531_1 *3533:B 0
*END
*D_NET *3534 0.00108
*CONN
*I *3535:Y O *D _1334
*I *3536:B I *L 0
*CAP
1 3534_1 0.00108
*RES
1 *3535:Y 3534_1 4.98214
2 3534_1 *3536:B 0
*END
*D_NET *3537 0.000576
*CONN
*I *3538:Y O *D _1335
*I *3539:C I *L 0
*CAP
1 3537_1 0.000576
*RES
1 *3538:Y 3537_1 2
2 3537_1 *3539:C 0
*END
*D_NET *3540 0.0005112
*CONN
*I *3541:Y O *D _1336
*I *3542:D I *L 0
*CAP
1 3540_1 0.0005112
*RES
1 *3541:Y 3540_1 2.02143
2 3540_1 *3542:D 0
*END
*D_NET *3543 0.000288
*CONN
*I *3544:Y O *D _1337
*I *3545:A I *L 0
*CAP
1 3543_1 0.000288
*RES
1 *3544:Y 3543_1 1
2 3543_1 *3545:A 0
*END
*D_NET *3546 0.000504
*CONN
*I *3547:Y O *D _1338
*I *3548:A I *L 0
*CAP
1 3546_1 0.000504
*RES
1 *3547:Y 3546_1 2.16071
2 3546_1 *3548:A 0
*END
*D_NET *3549 0.0009072
*CONN
*I *3550:Y O *D _1339
*I *3551:C I *L 0
*CAP
1 3549_1 0.0009072
*RES
1 *3550:Y 3549_1 3.64286
2 3549_1 *3551:C 0
*END
*D_NET *3552 0.0031176
*CONN
*I *3553:Y O *D _1340
*I *3554:B I *L 0
*CAP
1 3552_1 0.0031176
*RES
1 *3553:Y 3552_1 12.4679
2 3552_1 *3554:B 0
*END
*D_NET *3555 0.0008064
*CONN
*I *3556:Y O *D _1341
*I *3557:D I *L 0
*CAP
1 3555_1 0.0008064
*RES
1 *3556:Y 3555_1 3.29286
2 3555_1 *3557:D 0
*END
*D_NET *3558 0.0014184
*CONN
*I *3559:Y O *D _1342
*I *3560:B I *L 0
*CAP
1 3558_1 0.0014184
*RES
1 *3559:Y 3558_1 5.82857
2 3558_1 *3560:B 0
*END
*D_NET *3561 0.0005904
*CONN
*I *3562:Y O *D _1343
*I *3563:B I *L 0
*CAP
1 3561_1 0.0005904
*RES
1 *3562:Y 3561_1 2.54286
2 3561_1 *3563:B 0
*END
*D_NET *3564 0.0005472
*CONN
*I *3565:Y O *D _1346
*I *3566:C I *L 0
*CAP
1 3564_1 0.0005472
*RES
1 *3565:Y 3564_1 2.14643
2 3564_1 *3566:C 0
*END
*D_NET *3567 0.0008784
*CONN
*I *3568:Y O *D _1347
*I *3569:A I *L 0
*CAP
1 3567_1 0.0008784
*RES
1 *3568:Y 3567_1 3.54286
2 3567_1 *3569:A 0
*END
*D_NET *3570 0.00036
*CONN
*I *3571:Y O *D _1348
*I *3572:C I *L 0
*CAP
1 3570_1 0.00036
*RES
1 *3571:Y 3570_1 1.25
2 3570_1 *3572:C 0
*END
*D_NET *3573 0.0009
*CONN
*I *3574:Y O *D _1349
*I *3575:D I *L 0
*CAP
1 3573_1 0.0009
*RES
1 *3574:Y 3573_1 3.94643
2 3573_1 *3575:D 0
*END
*D_NET *3576 0.0009072
*CONN
*I *3577:Y O *D _1350
*I *3578:B I *L 0
*CAP
1 3576_1 0.0009072
*RES
1 *3577:Y 3576_1 4.21786
2 3576_1 *3578:B 0
*END
*D_NET *3579 0.0004752
*CONN
*I *3580:Y O *D _1351
*I *3581:A I *L 0
*CAP
1 3579_1 0.0004752
*RES
1 *3580:Y 3579_1 1.89643
2 3579_1 *3581:A 0
*END
*D_NET *3582 0.000864
*CONN
*I *3583:Y O *D _1352
*I *3584:C I *L 0
*CAP
1 3582_1 0.000864
*RES
1 *3583:Y 3582_1 4.23214
2 3582_1 *3584:C 0
*END
*D_NET *3585 0.000504
*CONN
*I *3586:Y O *D _1353
*I *3587:B I *L 0
*CAP
1 3585_1 0.000504
*RES
1 *3586:Y 3585_1 1.75
2 3585_1 *3587:B 0
*END
*D_NET *3588 0.0011664
*CONN
*I *3589:Y O *D _1354
*I *3590:D I *L 0
*CAP
1 3588_1 0.0011664
*RES
1 *3589:Y 3588_1 5.775
2 3588_1 *3590:D 0
*END
*D_NET *3591 0.0012096
*CONN
*I *3592:Y O *D _1356
*I *3593:A I *L 0
*CAP
1 3591_1 0.0012096
*RES
1 *3592:Y 3591_1 5.76071
2 3591_1 *3593:A 0
*END
*D_NET *3594 0.0011376
*CONN
*I *3595:Y O *D _1360
*I *3596:C I *L 0
*CAP
1 3594_1 0.0011376
*RES
1 *3595:Y 3594_1 5.51071
2 3594_1 *3596:C 0
*END
*D_NET *3597 0.000252
*CONN
*I *3598:Y O *D _1361
*I *3599:A I *L 0
*CAP
1 3597_1 0.000252
*RES
1 *3598:Y 3597_1 0.875
2 3597_1 *3599:A 0
*END
*D_NET *3600 0.0010872
*CONN
*I *3601:Y O *D _1362
*I *3602:C I *L 0
*CAP
1 3600_1 0.0010872
*RES
1 *3601:Y 3600_1 4.84286
2 3600_1 *3602:C 0
*END
*D_NET *3603 0.0004752
*CONN
*I *3604:Y O *D _1363
*I *3605:D I *L 0
*CAP
1 3603_1 0.0004752
*RES
1 *3604:Y 3603_1 1.89643
2 3603_1 *3605:D 0
*END
*D_NET *3606 0.0011232
*CONN
*I *3607:Y O *D _1364
*I *3608:B I *L 0
*CAP
1 3606_1 0.0011232
*RES
1 *3607:Y 3606_1 4.55714
2 3606_1 *3608:B 0
*END
*D_NET *3609 0.000504
*CONN
*I *3610:Y O *D _1365
*I *3611:A I *L 0
*CAP
1 3609_1 0.000504
*RES
1 *3610:Y 3609_1 2.16071
2 3609_1 *3611:A 0
*END
*D_NET *3612 0.000288
*CONN
*I *3613:Y O *D _1366
*I *3614:C I *L 0
*CAP
1 3612_1 0.000288
*RES
1 *3613:Y 3612_1 1
2 3612_1 *3614:C 0
*END
*D_NET *3615 0.00234
*CONN
*I *3616:Y O *D _1367
*I *3617:B I *L 0
*CAP
1 3615_1 0.00234
*RES
1 *3616:Y 3615_1 9.68571
2 3615_1 *3617:B 0
*END
*D_NET *3618 0.0009432
*CONN
*I *3619:Y O *D _1368
*I *3620:D I *L 0
*CAP
1 3618_1 0.0009432
*RES
1 *3619:Y 3618_1 3.93214
2 3618_1 *3620:D 0
*END
*D_NET *3621 0.0032688
*CONN
*I *3622:Y O *D _1369
*I *3623:B I *L 0
*CAP
1 3621_1 0.0032688
*RES
1 *3622:Y 3621_1 16.1143
2 3621_1 *3623:B 0
*END
*D_NET *3624 0.0008208
*CONN
*I *3625:Y O *D _1374
*I *3626:C I *L 0
*CAP
1 3624_1 0.0008208
*RES
1 *3625:Y 3624_1 3.83571
2 3624_1 *3626:C 0
*END
*D_NET *3627 0.0011304
*CONN
*I *3628:Y O *D _1375
*I *3629:A I *L 0
*CAP
1 3627_1 0.0011304
*RES
1 *3628:Y 3627_1 5.23929
2 3627_1 *3629:A 0
*END
*D_NET *3630 0.000864
*CONN
*I *3631:Y O *D _1376
*I *3632:C I *L 0
*CAP
1 3630_1 0.000864
*RES
1 *3631:Y 3630_1 4.23214
2 3630_1 *3632:C 0
*END
*D_NET *3633 0.0005112
*CONN
*I *3634:Y O *D _1377
*I *3635:C I *L 0
*CAP
1 3633_1 0.0005112
*RES
1 *3634:Y 3633_1 2.02143
2 3633_1 *3635:C 0
*END
*D_NET *3636 0.0009504
*CONN
*I *3637:Y O *D _1378
*I *3638:B I *L 0
*CAP
1 3636_1 0.0009504
*RES
1 *3637:Y 3636_1 3.79286
2 3636_1 *3638:B 0
*END
*D_NET *3639 0.0013824
*CONN
*I *3640:Y O *D _1379
*I *3641:A I *L 0
*CAP
1 3639_1 0.0013824
*RES
1 *3640:Y 3639_1 6.11429
2 3639_1 *3641:A 0
*END
*D_NET *3642 0.00108
*CONN
*I *3643:Y O *D _1380
*I *3644:C I *L 0
*CAP
1 3642_1 0.00108
*RES
1 *3643:Y 3642_1 4.98214
2 3642_1 *3644:C 0
*END
*D_NET *3645 0.0009792
*CONN
*I *3646:Y O *D _1381
*I *3647:B I *L 0
*CAP
1 3645_1 0.0009792
*RES
1 *3646:Y 3645_1 4.05714
2 3645_1 *3647:B 0
*END
*D_NET *3648 0.000432
*CONN
*I *3649:Y O *D _1382
*I *3650:D I *L 0
*CAP
1 3648_1 0.000432
*RES
1 *3649:Y 3648_1 1.5
2 3648_1 *3650:D 0
*END
*D_NET *3651 0.0005472
*CONN
*I *3652:Y O *D _1383
*I *3653:A I *L 0
*CAP
1 3651_1 0.0005472
*RES
1 *3652:Y 3651_1 2.14643
2 3651_1 *3653:A 0
*END
*D_NET *3654 0.0013176
*CONN
*I *3655:Y O *D _1384
*I *3656:B I *L 0
*CAP
1 3654_1 0.0013176
*RES
1 *3655:Y 3654_1 5.47857
2 3654_1 *3656:B 0
*END
*D_NET *3657 0.0013248
*CONN
*I *3658:Y O *D _1386
*I *3659:C I *L 0
*CAP
1 3657_1 0.0013248
*RES
1 *3658:Y 3657_1 5.99643
2 3657_1 *3659:C 0
*END
*D_NET *3660 0.001512
*CONN
*I *3661:Y O *D _1387
*I *3662:A I *L 0
*CAP
1 3660_1 0.001512
*RES
1 *3661:Y 3660_1 6.07143
2 3660_1 *3662:A 0
*END
*D_NET *3663 0.0004752
*CONN
*I *3664:Y O *D _1388
*I *3665:C I *L 0
*CAP
1 3663_1 0.0004752
*RES
1 *3664:Y 3663_1 1.89643
2 3663_1 *3665:C 0
*END
*D_NET *3666 0.000432
*CONN
*I *3667:Y O *D _1389
*I *3668:D I *L 0
*CAP
1 3666_1 0.000432
*RES
1 *3667:Y 3666_1 1.5
2 3666_1 *3668:D 0
*END
*D_NET *3669 0.0009
*CONN
*I *3670:Y O *D _1390
*I *3671:B I *L 0
*CAP
1 3669_1 0.0009
*RES
1 *3670:Y 3669_1 4.35714
2 3669_1 *3671:B 0
*END
*D_NET *3672 0.000648
*CONN
*I *3673:Y O *D _1391
*I *3674:A I *L 0
*CAP
1 3672_1 0.000648
*RES
1 *3673:Y 3672_1 2.66071
2 3672_1 *3674:A 0
*END
*D_NET *3675 0.0006336
*CONN
*I *3676:Y O *D _1392
*I *3677:C I *L 0
*CAP
1 3675_1 0.0006336
*RES
1 *3676:Y 3675_1 2.52857
2 3675_1 *3677:C 0
*END
*D_NET *3678 0.0018432
*CONN
*I *3679:Y O *D _1393
*I *3680:B I *L 0
*CAP
1 3678_1 0.0018432
*RES
1 *3679:Y 3678_1 7.87857
2 3678_1 *3680:B 0
*END
*D_NET *3681 0.0012744
*CONN
*I *3682:Y O *D _1394
*I *3683:D I *L 0
*CAP
1 3681_1 0.0012744
*RES
1 *3682:Y 3681_1 6.15
2 3681_1 *3683:D 0
*END
*D_NET *3684 0.0009792
*CONN
*I *3685:Y O *D _1396
*I *3686:A I *L 0
*CAP
1 3684_1 0.0009792
*RES
1 *3685:Y 3684_1 4.46786
2 3684_1 *3686:A 0
*END
*D_NET *3687 0.0023184
*CONN
*I *3688:Y O *D _1397
*I *3689:C I *L 0
*CAP
1 3687_1 0.0023184
*RES
1 *3688:Y 3687_1 11.4179
2 3687_1 *3689:C 0
*END
*D_NET *3690 0.0009
*CONN
*I *3691:Y O *D _1399
*I *3692:A I *L 0
*CAP
1 3690_1 0.0009
*RES
1 *3691:Y 3690_1 4.35714
2 3690_1 *3692:A 0
*END
*D_NET *3693 0.0008424
*CONN
*I *3694:Y O *D _1402
*I *3695:C I *L 0
*CAP
1 3693_1 0.0008424
*RES
1 *3694:Y 3693_1 3.41786
2 3693_1 *3695:C 0
*END
*D_NET *3696 0.002664
*CONN
*I *3697:Y O *D _1403
*I *3698:C I *L 0
*CAP
1 3696_1 0.002664
*RES
1 *3697:Y 3696_1 10.4
2 3696_1 *3698:C 0
*END
*D_NET *3699 0.000468
*CONN
*I *3700:Y O *D _1404
*I *3701:C I *L 0
*CAP
1 3699_1 0.000468
*RES
1 *3700:Y 3699_1 1.625
2 3699_1 *3701:C 0
*END
*D_NET *3702 0.0011304
*CONN
*I *3703:Y O *D _1405
*I *3704:B I *L 0
*CAP
1 3702_1 0.0011304
*RES
1 *3703:Y 3702_1 4.82857
2 3702_1 *3704:B 0
*END
*D_NET *3705 0.0011016
*CONN
*I *3706:Y O *D _1406
*I *3707:B I *L 0
*CAP
1 3705_1 0.0011016
*RES
1 *3706:Y 3705_1 4.48214
2 3705_1 *3707:B 0
*END
*D_NET *3708 0.00306
*CONN
*I *3709:Y O *D _1407
*I *3710:A I *L 0
*CAP
1 3708_1 0.00306
*RES
1 *3709:Y 3708_1 13.0893
2 3708_1 *3710:A 0
*END
*D_NET *3711 0.001224
*CONN
*I *3712:Y O *D _1408
*I *3713:B I *L 0
*CAP
1 3711_1 0.001224
*RES
1 *3712:Y 3711_1 5.64643
2 3711_1 *3713:B 0
*END
*D_NET *3714 0.000324
*CONN
*I *3715:Y O *D _1409
*I *3716:D I *L 0
*CAP
1 3714_1 0.000324
*RES
1 *3715:Y 3714_1 1.125
2 3714_1 *3716:D 0
*END
*D_NET *3717 0.0014328
*CONN
*I *3718:Y O *D _1413
*I *3719:C I *L 0
*CAP
1 3717_1 0.0014328
*RES
1 *3718:Y 3717_1 6.45357
2 3717_1 *3719:C 0
*END
*D_NET *3720 0.0006336
*CONN
*I *3721:Y O *D _1414
*I *3722:A I *L 0
*CAP
1 3720_1 0.0006336
*RES
1 *3721:Y 3720_1 2.52857
2 3720_1 *3722:A 0
*END
*D_NET *3723 0.000864
*CONN
*I *3724:Y O *D _1415
*I *3725:C I *L 0
*CAP
1 3723_1 0.000864
*RES
1 *3724:Y 3723_1 4.23214
2 3723_1 *3725:C 0
*END
*D_NET *3726 0.0012672
*CONN
*I *3727:Y O *D _1416
*I *3728:C I *L 0
*CAP
1 3726_1 0.0012672
*RES
1 *3727:Y 3726_1 5.05714
2 3726_1 *3728:C 0
*END
*D_NET *3729 0.001296
*CONN
*I *3730:Y O *D _1417
*I *3731:B I *L 0
*CAP
1 3729_1 0.001296
*RES
1 *3730:Y 3729_1 5.73214
2 3729_1 *3731:B 0
*END
*D_NET *3732 0.0008352
*CONN
*I *3733:Y O *D _1418
*I *3734:A I *L 0
*CAP
1 3732_1 0.0008352
*RES
1 *3733:Y 3732_1 3.14643
2 3732_1 *3734:A 0
*END
*D_NET *3735 0.000252
*CONN
*I *3736:Y O *D _1419
*I *3737:C I *L 0
*CAP
1 3735_1 0.000252
*RES
1 *3736:Y 3735_1 0.875
2 3735_1 *3737:C 0
*END
*D_NET *3738 0.0008568
*CONN
*I *3739:Y O *D _1420
*I *3740:B I *L 0
*CAP
1 3738_1 0.0008568
*RES
1 *3739:Y 3738_1 3.96071
2 3738_1 *3740:B 0
*END
*D_NET *3741 0.001044
*CONN
*I *3742:Y O *D _1421
*I *3743:D I *L 0
*CAP
1 3741_1 0.001044
*RES
1 *3742:Y 3741_1 4.44643
2 3741_1 *3743:D 0
*END
*D_NET *3744 0.002592
*CONN
*I *3745:Y O *D _1423
*I *3746:C I *L 0
*CAP
1 3744_1 0.002592
*RES
1 *3745:Y 3744_1 10.6429
2 3744_1 *3746:C 0
*END
*D_NET *3747 0.0008784
*CONN
*I *3748:Y O *D _1426
*I *3749:C I *L 0
*CAP
1 3747_1 0.0008784
*RES
1 *3748:Y 3747_1 3.95357
2 3747_1 *3749:C 0
*END
*D_NET *3750 0.0010368
*CONN
*I *3751:Y O *D _1427
*I *3752:A I *L 0
*CAP
1 3750_1 0.0010368
*RES
1 *3751:Y 3750_1 4.58571
2 3750_1 *3752:A 0
*END
*D_NET *3753 0.0009288
*CONN
*I *3754:Y O *D _1428
*I *3755:D I *L 0
*CAP
1 3753_1 0.0009288
*RES
1 *3754:Y 3753_1 3.8
2 3753_1 *3755:D 0
*END
*D_NET *3756 0.00144
*CONN
*I *3757:Y O *D _1429
*I *3758:C I *L 0
*CAP
1 3756_1 0.00144
*RES
1 *3757:Y 3756_1 5.82143
2 3756_1 *3758:C 0
*END
*D_NET *3759 0.0018864
*CONN
*I *3760:Y O *D _1430
*I *3761:B I *L 0
*CAP
1 3759_1 0.0018864
*RES
1 *3760:Y 3759_1 8.68571
2 3759_1 *3761:B 0
*END
*D_NET *3762 0.0013968
*CONN
*I *3763:Y O *D _1431
*I *3764:A I *L 0
*CAP
1 3762_1 0.0013968
*RES
1 *3763:Y 3762_1 5.83571
2 3762_1 *3764:A 0
*END
*D_NET *3765 0.002232
*CONN
*I *3766:Y O *D _1432
*I *3767:C I *L 0
*CAP
1 3765_1 0.002232
*RES
1 *3766:Y 3765_1 8.98214
2 3765_1 *3767:C 0
*END
*D_NET *3768 0.0009792
*CONN
*I *3769:Y O *D _1433
*I *3770:B I *L 0
*CAP
1 3768_1 0.0009792
*RES
1 *3769:Y 3768_1 4.46786
2 3768_1 *3770:B 0
*END
*D_NET *3771 0.000972
*CONN
*I *3772:Y O *D _1434
*I *3773:D I *L 0
*CAP
1 3771_1 0.000972
*RES
1 *3772:Y 3771_1 4.19643
2 3771_1 *3773:D 0
*END
*D_NET *3774 0.0010872
*CONN
*I *3775:Y O *D _1439
*I *3776:C I *L 0
*CAP
1 3774_1 0.0010872
*RES
1 *3775:Y 3774_1 4.84286
2 3774_1 *3776:C 0
*END
*D_NET *3777 0.0024552
*CONN
*I *3778:Y O *D _1440
*I *3779:A I *L 0
*CAP
1 3777_1 0.0024552
*RES
1 *3778:Y 3777_1 10.825
2 3777_1 *3779:A 0
*END
*D_NET *3780 0.0009792
*CONN
*I *3781:Y O *D _1441
*I *3782:D I *L 0
*CAP
1 3780_1 0.0009792
*RES
1 *3781:Y 3780_1 4.05714
2 3780_1 *3782:D 0
*END
*D_NET *3783 0.0006048
*CONN
*I *3784:Y O *D _1442
*I *3785:C I *L 0
*CAP
1 3783_1 0.0006048
*RES
1 *3784:Y 3783_1 3.08571
2 3783_1 *3785:C 0
*END
*D_NET *3786 0.0007632
*CONN
*I *3787:Y O *D _1443
*I *3788:B I *L 0
*CAP
1 3786_1 0.0007632
*RES
1 *3787:Y 3786_1 3.30714
2 3786_1 *3788:B 0
*END
*D_NET *3789 0.0013968
*CONN
*I *3790:Y O *D _1444
*I *3791:A I *L 0
*CAP
1 3789_1 0.0013968
*RES
1 *3790:Y 3789_1 6.24643
2 3789_1 *3791:A 0
*END
*D_NET *3792 0.0004536
*CONN
*I *3793:Y O *D _1445
*I *3794:C I *L 0
*CAP
1 3792_1 0.0004536
*RES
1 *3793:Y 3792_1 1.90357
2 3792_1 *3794:C 0
*END
*D_NET *3795 0.000504
*CONN
*I *3796:Y O *D _1446
*I *3797:B I *L 0
*CAP
1 3795_1 0.000504
*RES
1 *3796:Y 3795_1 1.75
2 3795_1 *3797:B 0
*END
*D_NET *3798 0.0007128
*CONN
*I *3799:Y O *D _1447
*I *3800:D I *L 0
*CAP
1 3798_1 0.0007128
*RES
1 *3799:Y 3798_1 3.46071
2 3798_1 *3800:D 0
*END
*D_NET *3801 0.001116
*CONN
*I *3802:Y O *D _1448
*I *3803:C I *L 0
*CAP
1 3801_1 0.001116
*RES
1 *3802:Y 3801_1 5.10714
2 3801_1 *3803:C 0
*END
*D_NET *3804 0.0005472
*CONN
*I *3805:Y O *D _1452
*I *3806:C I *L 0
*CAP
1 3804_1 0.0005472
*RES
1 *3805:Y 3804_1 2.14643
2 3804_1 *3806:C 0
*END
*D_NET *3807 0.0011664
*CONN
*I *3808:Y O *D _1453
*I *3809:A I *L 0
*CAP
1 3807_1 0.0011664
*RES
1 *3808:Y 3807_1 4.95357
2 3807_1 *3809:A 0
*END
*D_NET *3810 0.0022968
*CONN
*I *3811:Y O *D _1454
*I *3812:C I *L 0
*CAP
1 3810_1 0.0022968
*RES
1 *3811:Y 3810_1 8.96071
2 3810_1 *3812:C 0
*END
*D_NET *3813 0.0009288
*CONN
*I *3814:Y O *D _1455
*I *3815:B I *L 0
*CAP
1 3813_1 0.0009288
*RES
1 *3814:Y 3813_1 3.71786
2 3813_1 *3815:B 0
*END
*D_NET *3816 0.0007992
*CONN
*I *3817:Y O *D _1456
*I *3818:A I *L 0
*CAP
1 3816_1 0.0007992
*RES
1 *3817:Y 3816_1 3.84286
2 3816_1 *3818:A 0
*END
*D_NET *3819 0.0012528
*CONN
*I *3820:Y O *D _1457
*I *3821:B I *L 0
*CAP
1 3819_1 0.0012528
*RES
1 *3820:Y 3819_1 5.74643
2 3819_1 *3821:B 0
*END
*D_NET *3822 0.000792
*CONN
*I *3823:Y O *D _1458
*I *3824:A I *L 0
*CAP
1 3822_1 0.000792
*RES
1 *3823:Y 3822_1 2.75
2 3822_1 *3824:A 0
*END
*D_NET *3825 0.0010296
*CONN
*I *3826:Y O *D _1459
*I *3827:C I *L 0
*CAP
1 3825_1 0.0010296
*RES
1 *3826:Y 3825_1 4.725
2 3825_1 *3827:C 0
*END
*D_NET *3828 0.000288
*CONN
*I *3829:Y O *D _1460
*I *3830:B I *L 0
*CAP
1 3828_1 0.000288
*RES
1 *3829:Y 3828_1 1
2 3828_1 *3830:B 0
*END
*D_NET *3831 0.000504
*CONN
*I *3832:Y O *D _1461
*I *3833:D I *L 0
*CAP
1 3831_1 0.000504
*RES
1 *3832:Y 3831_1 1.75
2 3831_1 *3833:D 0
*END
*D_NET *3834 0.0017568
*CONN
*I *3835:Y O *D _1464
*I *3836:A I *L 0
*CAP
1 3834_1 0.0017568
*RES
1 *3835:Y 3834_1 7.49643
2 3834_1 *3836:A 0
*END
*D_NET *3837 0.0011304
*CONN
*I *3838:Y O *D _1465
*I *3839:C I *L 0
*CAP
1 3837_1 0.0011304
*RES
1 *3838:Y 3837_1 5.23929
2 3837_1 *3839:C 0
*END
*D_NET *3840 0.000324
*CONN
*I *3841:Y O *D _1466
*I *3842:B I *L 0
*CAP
1 3840_1 0.000324
*RES
1 *3841:Y 3840_1 1.125
2 3840_1 *3842:B 0
*END
*D_NET *3843 0.0014328
*CONN
*I *3844:Y O *D _1467
*I *3845:D I *L 0
*CAP
1 3843_1 0.0014328
*RES
1 *3844:Y 3843_1 6.37143
2 3843_1 *3845:D 0
*END
*D_NET *3846 0.0005544
*CONN
*I *3847:Y O *D _1468
*I *3848:A I *L 0
*CAP
1 3846_1 0.0005544
*RES
1 *3847:Y 3846_1 2.41786
2 3846_1 *3848:A 0
*END
*D_NET *3849 0.0009144
*CONN
*I *3850:Y O *D _1469
*I *3851:B I *L 0
*CAP
1 3849_1 0.0009144
*RES
1 *3850:Y 3849_1 3.66786
2 3849_1 *3851:B 0
*END
*D_NET *3852 0.0007344
*CONN
*I *3853:Y O *D _1470
*I *3854:A I *L 0
*CAP
1 3852_1 0.0007344
*RES
1 *3853:Y 3852_1 3.04286
2 3852_1 *3854:A 0
*END
*D_NET *3855 0.0014688
*CONN
*I *3856:Y O *D _1471
*I *3857:C I *L 0
*CAP
1 3855_1 0.0014688
*RES
1 *3856:Y 3855_1 6.16786
2 3855_1 *3857:C 0
*END
*D_NET *3858 0.0021312
*CONN
*I *3859:Y O *D _1472
*I *3860:B I *L 0
*CAP
1 3858_1 0.0021312
*RES
1 *3859:Y 3858_1 9.125
2 3858_1 *3860:B 0
*END
*D_NET *3861 0.0016488
*CONN
*I *3862:Y O *D _1473
*I *3863:C I *L 0
*CAP
1 3861_1 0.0016488
*RES
1 *3862:Y 3861_1 7.94286
2 3861_1 *3863:C 0
*END
*D_NET *3864 0.0009504
*CONN
*I *3865:Y O *D _1474
*I *3866:B I *L 0
*CAP
1 3864_1 0.0009504
*RES
1 *3865:Y 3864_1 4.61429
2 3864_1 *3866:B 0
*END
*D_NET *3867 0.0004752
*CONN
*I *3868:Y O *D _1475
*I *3869:C I *L 0
*CAP
1 3867_1 0.0004752
*RES
1 *3868:Y 3867_1 1.89643
2 3867_1 *3869:C 0
*END
*D_NET *3870 0.000504
*CONN
*I *3871:Y O *D _1476
*I *3872:B I *L 0
*CAP
1 3870_1 0.000504
*RES
1 *3871:Y 3870_1 1.75
2 3870_1 *3872:B 0
*END
*D_NET *3873 0.0031536
*CONN
*I *3874:Y O *D _1477
*I *3875:A I *L 0
*CAP
1 3873_1 0.0031536
*RES
1 *3874:Y 3873_1 13.7429
2 3873_1 *3875:A 0
*END
*D_NET *3876 0.0011088
*CONN
*I *3877:Y O *D _1479
*I *3878:C I *L 0
*CAP
1 3876_1 0.0011088
*RES
1 *3877:Y 3876_1 5.24643
2 3876_1 *3878:C 0
*END
*D_NET *3879 0.000504
*CONN
*I *3880:Y O *D _1480
*I *3881:B I *L 0
*CAP
1 3879_1 0.000504
*RES
1 *3880:Y 3879_1 2.57143
2 3879_1 *3881:B 0
*END
*D_NET *3882 0.0017136
*CONN
*I *3883:Y O *D _1481
*I *3884:D I *L 0
*CAP
1 3882_1 0.0017136
*RES
1 *3883:Y 3882_1 7.51071
2 3882_1 *3884:D 0
*END
*D_NET *3885 0.0028944
*CONN
*I *3886:Y O *D _1482
*I *3887:B I *L 0
*CAP
1 3885_1 0.0028944
*RES
1 *3886:Y 3885_1 12.4321
2 3885_1 *3887:B 0
*END
*D_NET *3888 0.000504
*CONN
*I *3889:Y O *D _1483
*I *3890:A I *L 0
*CAP
1 3888_1 0.000504
*RES
1 *3889:Y 3888_1 2.16071
2 3888_1 *3890:A 0
*END
*D_NET *3891 0.0010152
*CONN
*I *3892:Y O *D _1484
*I *3893:C I *L 0
*CAP
1 3891_1 0.0010152
*RES
1 *3892:Y 3891_1 3.77143
2 3891_1 *3893:C 0
*END
*D_NET *3894 0.0024984
*CONN
*I *3895:Y O *D _1485
*I *3896:A I *L 0
*CAP
1 3894_1 0.0024984
*RES
1 *3895:Y 3894_1 10.8107
2 3894_1 *3896:A 0
*END
*D_NET *3897 0.0006624
*CONN
*I *3898:Y O *D _1486
*I *3899:B I *L 0
*CAP
1 3897_1 0.0006624
*RES
1 *3898:Y 3897_1 3.20357
2 3897_1 *3899:B 0
*END
*D_NET *3900 0.0005472
*CONN
*I *3901:Y O *D _1487
*I *3902:D I *L 0
*CAP
1 3900_1 0.0005472
*RES
1 *3901:Y 3900_1 2.14643
2 3900_1 *3902:D 0
*END
*D_NET *3903 0.0015984
*CONN
*I *3904:Y O *D _1542
*I *3905:A I *L 0
*CAP
1 3903_1 0.0015984
*RES
1 *3904:Y 3903_1 6.04286
2 3903_1 *3905:A 0
*END
*D_NET *3906 0.0014544
*CONN
*I *3907:Y O *D _1488
*I *3908:A I *L 0
*CAP
1 3906_1 0.0014544
*RES
1 *3907:Y 3906_1 6.85714
2 3906_1 *3908:A 0
*END
*D_NET *3909 0.00036
*CONN
*I *3910:Y O *D _1491
*I *3911:A I *L 0
*CAP
1 3909_1 0.00036
*RES
1 *3910:Y 3909_1 1.25
2 3909_1 *3911:A 0
*END
*D_NET *3912 0.002124
*CONN
*I *3913:Y O *D _1492
*I *3914:A I *L 0
*CAP
1 3912_1 0.002124
*RES
1 *3913:Y 3912_1 8.19643
2 3912_1 *3914:A 0
*END
*D_NET *3915 0.000432
*CONN
*I *3916:Y O *D _1532
*I *3917:B I *L 0
*CAP
1 3915_1 0.000432
*RES
1 *3916:Y 3915_1 1.5
2 3915_1 *3917:B 0
*END
*D_NET *3918 0.0007776
*CONN
*I *3919:Y O *D _1533
*I *3920:C I *L 0
*CAP
1 3918_1 0.0007776
*RES
1 *3919:Y 3918_1 3.02857
2 3918_1 *3920:C 0
*END
*D_NET *3921 0.000396
*CONN
*I *3922:Y O *D _1534
*I *3923:A I *L 0
*CAP
1 3921_1 0.000396
*RES
1 *3922:Y 3921_1 1.375
2 3921_1 *3923:A 0
*END
*D_NET *3924 0.0007056
*CONN
*I *3925:Y O *D _1536
*I *3926:B I *L 0
*CAP
1 3924_1 0.0007056
*RES
1 *3925:Y 3924_1 3.6
2 3924_1 *3926:B 0
*END
*D_NET *3927 0.0004752
*CONN
*I *3928:Y O *D _1537
*I *3929:A I *L 0
*CAP
1 3927_1 0.0004752
*RES
1 *3928:Y 3927_1 1.89643
2 3927_1 *3929:A 0
*END
*D_NET *3930 0.00036
*CONN
*I *3931:Y O *D _1538
*I *3932:A I *L 0
*CAP
1 3930_1 0.00036
*RES
1 *3931:Y 3930_1 1.25
2 3930_1 *3932:A 0
*END
*D_NET *3933 0.0024408
*CONN
*I *3934:Y O *D _1540
*I *3935:C I *L 0
*CAP
1 3933_1 0.0024408
*RES
1 *3934:Y 3933_1 10.6929
2 3933_1 *3935:C 0
*END
*D_NET *3936 0.0010728
*CONN
*I *3937:Y O *D _1541
*I *3938:B I *L 0
*CAP
1 3936_1 0.0010728
*RES
1 *3937:Y 3936_1 5.12143
2 3936_1 *3938:B 0
*END
*D_NET *3939 0.0014472
*CONN
*I *3940:Y O *D _1543
*I *3941:D I *L 0
*CAP
1 3939_1 0.0014472
*RES
1 *3940:Y 3939_1 6.50357
2 3939_1 *3941:D 0
*END
*D_NET *3942 0.000252
*CONN
*I *3943:Y O *D _1551
*I *3944:B I *L 0
*CAP
1 3942_1 0.000252
*RES
1 *3943:Y 3942_1 0.875
2 3942_1 *3944:B 0
*END
*D_NET *3945 0.000396
*CONN
*I *3946:Y O *D _1553
*I *3947:B I *L 0
*CAP
1 3945_1 0.000396
*RES
1 *3946:Y 3945_1 1.375
2 3945_1 *3947:B 0
*END
*D_NET *3948 0.000288
*CONN
*I *3949:Y O *D _1555
*I *3950:C I *L 0
*CAP
1 3948_1 0.000288
*RES
1 *3949:Y 3948_1 1
2 3948_1 *3950:C 0
*END
*D_NET *3951 0.0016344
*CONN
*I *3952:Y O *D _1556
*I *3953:A I *L 0
*CAP
1 3951_1 0.0016344
*RES
1 *3952:Y 3951_1 7.4
2 3951_1 *3953:A 0
*END
*D_NET *3954 0.000648
*CONN
*I *3955:Y O *D _1557
*I *3956:B I *L 0
*CAP
1 3954_1 0.000648
*RES
1 *3955:Y 3954_1 3.07143
2 3954_1 *3956:B 0
*END
*D_NET *3957 0.0006696
*CONN
*I *3958:Y O *D _1563
*I *3959:C I *L 0
*CAP
1 3957_1 0.0006696
*RES
1 *3958:Y 3957_1 3.06429
2 3957_1 *3959:C 0
*END
*D_NET *3960 0.000324
*CONN
*I *3961:Y O *D _1564
*I *3962:B I *L 0
*CAP
1 3960_1 0.000324
*RES
1 *3961:Y 3960_1 1.125
2 3960_1 *3962:B 0
*END
*D_NET *3963 0.0023544
*CONN
*I *3964:Y O *D _1566
*I *3965:B I *L 0
*CAP
1 3963_1 0.0023544
*RES
1 *3964:Y 3963_1 11.5429
2 3963_1 *3965:B 0
*END
*D_NET *3966 0.000288
*CONN
*I *3967:Y O *D _1567
*I *3968:C I *L 0
*CAP
1 3966_1 0.000288
*RES
1 *3967:Y 3966_1 1
2 3966_1 *3968:C 0
*END
*D_NET *3969 0.000504
*CONN
*I *3970:Y O *D _1568
*I *3971:A I *L 0
*CAP
1 3969_1 0.000504
*RES
1 *3970:Y 3969_1 2.57143
2 3969_1 *3971:A 0
*END
*D_NET *3972 0.00144
*CONN
*I *3973:Y O *D _1569
*I *3974:A I *L 0
*CAP
1 3972_1 0.00144
*RES
1 *3973:Y 3972_1 5.82143
2 3972_1 *3974:A 0
*END
*D_NET *3975 0.001872
*CONN
*I *3976:Y O *D _1570
*I *3977:A I *L 0
*CAP
1 3975_1 0.001872
*RES
1 *3976:Y 3975_1 7.73214
2 3975_1 *3977:A 0
*END
*D_NET *3978 0.000432
*CONN
*I *3979:Y O *D _1572
*I *3980:A I *L 0
*CAP
1 3978_1 0.000432
*RES
1 *3979:Y 3978_1 1.5
2 3978_1 *3980:A 0
*END
*D_NET *3981 0.001116
*CONN
*I *3982:Y O *D _1574
*I *3983:A I *L 0
*CAP
1 3981_1 0.001116
*RES
1 *3982:Y 3981_1 5.10714
2 3981_1 *3983:A 0
*END
*D_NET *3984 0.000324
*CONN
*I *3985:Y O *D _1575
*I *3986:B I *L 0
*CAP
1 3984_1 0.000324
*RES
1 *3985:Y 3984_1 1.125
2 3984_1 *3986:B 0
*END
*D_NET *3987 0.0007488
*CONN
*I *3988:Y O *D _1576
*I *3989:B I *L 0
*CAP
1 3987_1 0.0007488
*RES
1 *3988:Y 3987_1 3.58571
2 3987_1 *3989:B 0
*END
*D_NET *3990 0.000756
*CONN
*I *3991:Y O *D _1577
*I *3992:B I *L 0
*CAP
1 3990_1 0.000756
*RES
1 *3991:Y 3990_1 3.44643
2 3990_1 *3992:B 0
*END
*D_NET *3993 0.00108
*CONN
*I *3994:Y O *D _1581
*I *3995:C I *L 0
*CAP
1 3993_1 0.00108
*RES
1 *3994:Y 3993_1 4.98214
2 3993_1 *3995:C 0
*END
*D_NET *3996 0.0013968
*CONN
*I *3997:Y O *D _1582
*I *3998:A I *L 0
*CAP
1 3996_1 0.0013968
*RES
1 *3997:Y 3996_1 6.65714
2 3996_1 *3998:A 0
*END
*D_NET *3999 0.00108
*CONN
*I *4000:Y O *D _1583
*I *4001:B I *L 0
*CAP
1 3999_1 0.00108
*RES
1 *4000:Y 3999_1 4.98214
2 3999_1 *4001:B 0
*END
*D_NET *4002 0.000396
*CONN
*I *4003:Y O *D _1584
*I *4004:A I *L 0
*CAP
1 4002_1 0.000396
*RES
1 *4003:Y 4002_1 1.375
2 4002_1 *4004:A 0
*END
*D_NET *4005 0.0013176
*CONN
*I *4006:Y O *D _1585
*I *4007:C I *L 0
*CAP
1 4005_1 0.0013176
*RES
1 *4006:Y 4005_1 5.725
2 4005_1 *4007:C 0
*END
*D_NET *4008 0.0023112
*CONN
*I *4009:Y O *D _1587
*I *4010:B I *L 0
*CAP
1 4008_1 0.0023112
*RES
1 *4009:Y 4008_1 8.68214
2 4008_1 *4010:B 0
*END
*D_NET *4011 0.0022968
*CONN
*I *4012:Y O *D _1588
*I *4013:A I *L 0
*CAP
1 4011_1 0.0022968
*RES
1 *4012:Y 4011_1 9.37143
2 4011_1 *4013:A 0
*END
*D_NET *4014 0.0033408
*CONN
*I *4015:Y O *D _1589
*I *4016:C I *L 0
*CAP
1 4014_1 0.0033408
*RES
1 *4015:Y 4014_1 16.2821
2 4014_1 *4016:C 0
*END
*D_NET *4017 0.000324
*CONN
*I *4018:Y O *D _1591
*I *4019:C I *L 0
*CAP
1 4017_1 0.000324
*RES
1 *4018:Y 4017_1 1.125
2 4017_1 *4019:C 0
*END
*D_NET *4020 0.0008424
*CONN
*I *4021:Y O *D _1594
*I *4022:A I *L 0
*CAP
1 4020_1 0.0008424
*RES
1 *4021:Y 4020_1 3.41786
2 4020_1 *4022:A 0
*END
*D_NET *4023 0.000864
*CONN
*I *4024:Y O *D _1596
*I *4025:B I *L 0
*CAP
1 4023_1 0.000864
*RES
1 *4024:Y 4023_1 4.23214
2 4023_1 *4025:B 0
*END
*D_NET *4026 0.0011952
*CONN
*I *4027:Y O *D _1597
*I *4028:C I *L 0
*CAP
1 4026_1 0.0011952
*RES
1 *4027:Y 4026_1 5.21786
2 4026_1 *4028:C 0
*END
*D_NET *4029 0.0016992
*CONN
*I *4030:Y O *D _1598
*I *4031:B I *L 0
*CAP
1 4029_1 0.0016992
*RES
1 *4030:Y 4029_1 8.2
2 4029_1 *4031:B 0
*END
*D_NET *4032 0.0007488
*CONN
*I *4033:Y O *D _1599
*I *4034:B I *L 0
*CAP
1 4032_1 0.0007488
*RES
1 *4033:Y 4032_1 2.92857
2 4032_1 *4034:B 0
*END
*D_NET *4035 0.000252
*CONN
*I *4036:Y O *D _1602
*I *4037:D I *L 0
*CAP
1 4035_1 0.000252
*RES
1 *4036:Y 4035_1 0.875
2 4035_1 *4037:D 0
*END
*D_NET *4038 0.0004752
*CONN
*I *4039:Y O *D _1603
*I *4040:A I *L 0
*CAP
1 4038_1 0.0004752
*RES
1 *4039:Y 4038_1 1.89643
2 4038_1 *4040:A 0
*END
*D_NET *4041 0.0010368
*CONN
*I *4042:Y O *D _1604
*I *4043:D I *L 0
*CAP
1 4041_1 0.0010368
*RES
1 *4042:Y 4041_1 4.99643
2 4041_1 *4043:D 0
*END
*D_NET *4044 0.0007848
*CONN
*I *4045:Y O *D _1605
*I *4046:B I *L 0
*CAP
1 4044_1 0.0007848
*RES
1 *4045:Y 4044_1 2.88929
2 4044_1 *4046:B 0
*END
*D_NET *4047 0.0022176
*CONN
*I *4048:Y O *D _1607
*I *4049:A I *L 0
*CAP
1 4047_1 0.0022176
*RES
1 *4048:Y 4047_1 9.26071
2 4047_1 *4049:A 0
*END
*D_NET *4050 0.000396
*CONN
*I *4051:Y O *D _1608
*I *4052:D I *L 0
*CAP
1 4050_1 0.000396
*RES
1 *4051:Y 4050_1 1.375
2 4050_1 *4052:D 0
*END
*D_NET *4053 0.0006048
*CONN
*I *4054:Y O *D _1609
*I *4055:A I *L 0
*CAP
1 4053_1 0.0006048
*RES
1 *4054:Y 4053_1 2.675
2 4053_1 *4055:A 0
*END
*D_NET *4056 0.0011088
*CONN
*I *4057:Y O *D _1610
*I *4058:D I *L 0
*CAP
1 4056_1 0.0011088
*RES
1 *4057:Y 4056_1 4.83571
2 4056_1 *4058:D 0
*END
*D_NET *4059 0.0010728
*CONN
*I *4060:Y O *D _1611
*I *4061:A I *L 0
*CAP
1 4059_1 0.0010728
*RES
1 *4060:Y 4059_1 5.12143
2 4059_1 *4061:A 0
*END
*D_NET *4062 0.0012672
*CONN
*I *4063:Y O *D _1612
*I *4064:B I *L 0
*CAP
1 4062_1 0.0012672
*RES
1 *4063:Y 4062_1 5.05714
2 4062_1 *4064:B 0
*END
*D_NET *4065 0.001656
*CONN
*I *4066:Y O *D _1614
*I *4067:A I *L 0
*CAP
1 4065_1 0.001656
*RES
1 *4066:Y 4065_1 6.98214
2 4065_1 *4067:A 0
*END
*D_NET *4068 0.001692
*CONN
*I *4069:Y O *D _1615
*I *4070:D I *L 0
*CAP
1 4068_1 0.001692
*RES
1 *4069:Y 4068_1 7.92857
2 4068_1 *4070:D 0
*END
*D_NET *4071 0.0010368
*CONN
*I *4072:Y O *D _1616
*I *4073:A I *L 0
*CAP
1 4071_1 0.0010368
*RES
1 *4072:Y 4071_1 4.58571
2 4071_1 *4073:A 0
*END
*D_NET *4074 0.00036
*CONN
*I *4075:Y O *D _1617
*I *4076:D I *L 0
*CAP
1 4074_1 0.00036
*RES
1 *4075:Y 4074_1 1.25
2 4074_1 *4076:D 0
*END
*D_NET *4077 0.0026064
*CONN
*I *4078:Y O *D _1618
*I *4079:A I *L 0
*CAP
1 4077_1 0.0026064
*RES
1 *4078:Y 4077_1 11.5964
2 4077_1 *4079:A 0
*END
*D_NET *4080 0.0014544
*CONN
*I *4081:Y O *D _1619
*I *4082:A I *L 0
*CAP
1 4080_1 0.0014544
*RES
1 *4081:Y 4080_1 6.775
2 4080_1 *4082:A 0
*END
*D_NET *4083 0.0015552
*CONN
*I *4084:Y O *D _1620
*I *4085:D I *L 0
*CAP
1 4083_1 0.0015552
*RES
1 *4084:Y 4083_1 6.87857
2 4083_1 *4085:D 0
*END
*D_NET *4086 0.0004752
*CONN
*I *4087:Y O *D _1621
*I *4088:C I *L 0
*CAP
1 4086_1 0.0004752
*RES
1 *4087:Y 4086_1 1.89643
2 4086_1 *4088:C 0
*END
*D_NET *4089 0.0007992
*CONN
*I *4090:Y O *D _1623
*I *4091:A I *L 0
*CAP
1 4089_1 0.0007992
*RES
1 *4090:Y 4089_1 3.84286
2 4089_1 *4091:A 0
*END
*D_NET *4092 0.0015408
*CONN
*I *4093:Y O *D _1624
*I *4094:B I *L 0
*CAP
1 4092_1 0.0015408
*RES
1 *4093:Y 4092_1 6.17143
2 4092_1 *4094:B 0
*END
*D_NET *4095 0.0013392
*CONN
*I *4096:Y O *D _1625
*I *4097:B I *L 0
*CAP
1 4095_1 0.0013392
*RES
1 *4096:Y 4095_1 6.12857
2 4095_1 *4097:B 0
*END
*D_NET *4098 0.0011376
*CONN
*I *4099:Y O *D _1626
*I *4100:D I *L 0
*CAP
1 4098_1 0.0011376
*RES
1 *4099:Y 4098_1 5.1
2 4098_1 *4100:D 0
*END
*D_NET *4101 0.000252
*CONN
*I *4102:Y O *D _1638
*I *4103:C I *L 0
*CAP
1 4101_1 0.000252
*RES
1 *4102:Y 4101_1 0.875
2 4101_1 *4103:C 0
*END
*D_NET *4104 0.0009936
*CONN
*I *4105:Y O *D _1639
*I *4106:A I *L 0
*CAP
1 4104_1 0.0009936
*RES
1 *4105:Y 4104_1 3.94286
2 4104_1 *4106:A 0
*END
*D_NET *4107 0.0010368
*CONN
*I *4108:Y O *D _1652
*I *4109:C I *L 0
*CAP
1 4107_1 0.0010368
*RES
1 *4108:Y 4107_1 4.58571
2 4107_1 *4109:C 0
*END
*D_NET *4110 0.0036288
*CONN
*I *4111:Y O *D _1659
*I *4112:B I *L 0
*CAP
1 4110_1 0.0036288
*RES
1 *4111:Y 4110_1 17.4464
2 4110_1 *4112:B 0
*END
*D_NET *4113 0.0006264
*CONN
*I *4114:Y O *D _1661
*I *4115:A I *L 0
*CAP
1 4113_1 0.0006264
*RES
1 *4114:Y 4113_1 2.66786
2 4113_1 *4115:A 0
*END
*D_NET *4116 0.000612
*CONN
*I *4117:Y O *D _1667
*I *4118:B I *L 0
*CAP
1 4116_1 0.000612
*RES
1 *4117:Y 4116_1 2.94643
2 4116_1 *4118:B 0
*END
*D_NET *4119 0.001008
*CONN
*I *4120:Y O *D _1669
*I *4121:C I *L 0
*CAP
1 4119_1 0.001008
*RES
1 *4120:Y 4119_1 4.73214
2 4119_1 *4121:C 0
*END
*D_NET *4122 0.000432
*CONN
*I *4123:Y O *D _1670
*I *4124:D I *L 0
*CAP
1 4122_1 0.000432
*RES
1 *4123:Y 4122_1 1.5
2 4122_1 *4124:D 0
*END
*D_NET *4125 0.001008
*CONN
*I *4126:Y O *D _1671
*I *4127:A I *L 0
*CAP
1 4125_1 0.001008
*RES
1 *4126:Y 4125_1 4.73214
2 4125_1 *4127:A 0
*END
*D_NET *4128 0.0012528
*CONN
*I *4129:Y O *D _1675
*I *4130:B I *L 0
*CAP
1 4128_1 0.0012528
*RES
1 *4129:Y 4128_1 5.74643
2 4128_1 *4130:B 0
*END
*D_NET *4131 0.0014112
*CONN
*I *4132:Y O *D _1676
*I *4133:C I *L 0
*CAP
1 4131_1 0.0014112
*RES
1 *4132:Y 4131_1 5.55714
2 4131_1 *4133:C 0
*END
*D_NET *4134 0.0005472
*CONN
*I *4135:Y O *D _1677
*I *4136:D I *L 0
*CAP
1 4134_1 0.0005472
*RES
1 *4135:Y 4134_1 2.14643
2 4134_1 *4136:D 0
*END
*D_NET *4137 0.0006624
*CONN
*I *4138:Y O *D _1679
*I *4139:B I *L 0
*CAP
1 4137_1 0.0006624
*RES
1 *4138:Y 4137_1 2.79286
2 4137_1 *4139:B 0
*END
*D_NET *4140 0.0011952
*CONN
*I *4141:Y O *D _1681
*I *4142:B I *L 0
*CAP
1 4140_1 0.0011952
*RES
1 *4141:Y 4140_1 5.21786
2 4140_1 *4142:B 0
*END
*D_NET *4143 0.0011448
*CONN
*I *4144:Y O *D _1682
*I *4145:A I *L 0
*CAP
1 4143_1 0.0011448
*RES
1 *4144:Y 4143_1 4.55
2 4143_1 *4145:A 0
*END
*D_NET *4146 0.0021672
*CONN
*I *4147:Y O *D _1683
*I *4148:D I *L 0
*CAP
1 4146_1 0.0021672
*RES
1 *4147:Y 4146_1 8.75714
2 4146_1 *4148:D 0
*END
*D_NET *4149 0.0016848
*CONN
*I *4150:Y O *D _1687
*I *4151:B I *L 0
*CAP
1 4149_1 0.0016848
*RES
1 *4150:Y 4149_1 7.65714
2 4149_1 *4151:B 0
*END
*D_NET *4152 0.0026352
*CONN
*I *4153:Y O *D _1688
*I *4154:B I *L 0
*CAP
1 4152_1 0.0026352
*RES
1 *4153:Y 4152_1 11.45
2 4152_1 *4154:B 0
*END
*D_NET *4155 0.000648
*CONN
*I *4156:Y O *D _1689
*I *4157:A I *L 0
*CAP
1 4155_1 0.000648
*RES
1 *4156:Y 4155_1 3.07143
2 4155_1 *4157:A 0
*END
*D_NET *4158 0.000252
*CONN
*I *4159:Y O *D _1690
*I *4160:D I *L 0
*CAP
1 4158_1 0.000252
*RES
1 *4159:Y 4158_1 0.875
2 4158_1 *4160:D 0
*END
*D_NET *4161 0.000792
*CONN
*I *4162:Y O *D _1691
*I *4163:A I *L 0
*CAP
1 4161_1 0.000792
*RES
1 *4162:Y 4161_1 3.57143
2 4161_1 *4163:A 0
*END
*D_NET *4164 0.0011304
*CONN
*I *4165:Y O *D _1693
*I *4166:B I *L 0
*CAP
1 4164_1 0.0011304
*RES
1 *4165:Y 4164_1 4.82857
2 4164_1 *4166:B 0
*END
*D_NET *4167 0.0007344
*CONN
*I *4168:Y O *D _1694
*I *4169:D I *L 0
*CAP
1 4167_1 0.0007344
*RES
1 *4168:Y 4167_1 3.04286
2 4167_1 *4169:D 0
*END
*D_NET *4170 0.0008928
*CONN
*I *4171:Y O *D _1695
*I *4172:C I *L 0
*CAP
1 4170_1 0.0008928
*RES
1 *4171:Y 4170_1 3.675
2 4170_1 *4172:C 0
*END
*D_NET *4173 0.00036
*CONN
*I *4174:Y O *D _1697
*I *4175:A I *L 0
*CAP
1 4173_1 0.00036
*RES
1 *4174:Y 4173_1 1.25
2 4173_1 *4175:A 0
*END
*D_NET *4176 0.002268
*CONN
*I *4177:Y O *D _1698
*I *4178:B I *L 0
*CAP
1 4176_1 0.002268
*RES
1 *4177:Y 4176_1 9.51786
2 4176_1 *4178:B 0
*END
*D_NET *4179 0.0018144
*CONN
*I *4180:Y O *D _1702
*I *4181:A I *L 0
*CAP
1 4179_1 0.0018144
*RES
1 *4180:Y 4179_1 8.43571
2 4179_1 *4181:A 0
*END
*D_NET *4182 0.0021168
*CONN
*I *4183:Y O *D _1703
*I *4184:B I *L 0
*CAP
1 4182_1 0.0021168
*RES
1 *4183:Y 4182_1 9.15714
2 4182_1 *4184:B 0
*END
*D_NET *4185 0.000324
*CONN
*I *4186:Y O *D _1704
*I *4187:D I *L 0
*CAP
1 4185_1 0.000324
*RES
1 *4186:Y 4185_1 1.125
2 4185_1 *4187:D 0
*END
*D_NET *4188 0.0011304
*CONN
*I *4189:Y O *D _1705
*I *4190:A I *L 0
*CAP
1 4188_1 0.0011304
*RES
1 *4189:Y 4188_1 4.82857
2 4188_1 *4190:A 0
*END
*D_NET *4191 0.000396
*CONN
*I *4192:Y O *D _1706
*I *4193:B I *L 0
*CAP
1 4191_1 0.000396
*RES
1 *4192:Y 4191_1 1.375
2 4191_1 *4193:B 0
*END
*D_NET *4194 0.001116
*CONN
*I *4195:Y O *D _1707
*I *4196:B I *L 0
*CAP
1 4194_1 0.001116
*RES
1 *4195:Y 4194_1 4.69643
2 4194_1 *4196:B 0
*END
*D_NET *4197 0.0013608
*CONN
*I *4198:Y O *D _1708
*I *4199:C I *L 0
*CAP
1 4197_1 0.0013608
*RES
1 *4198:Y 4197_1 6.53214
2 4197_1 *4199:C 0
*END
*D_NET *4200 0.0009648
*CONN
*I *4201:Y O *D _1709
*I *4202:D I *L 0
*CAP
1 4200_1 0.0009648
*RES
1 *4201:Y 4200_1 4.33571
2 4200_1 *4202:D 0
*END
*D_NET *4203 0.000612
*CONN
*I *4204:Y O *D _1710
*I *4205:B I *L 0
*CAP
1 4203_1 0.000612
*RES
1 *4204:Y 4203_1 2.94643
2 4203_1 *4205:B 0
*END
*D_NET *4206 0.0008784
*CONN
*I *4207:Y O *D _1713
*I *4208:B I *L 0
*CAP
1 4206_1 0.0008784
*RES
1 *4207:Y 4206_1 3.54286
2 4206_1 *4208:B 0
*END
*D_NET *4209 0.000252
*CONN
*I *4210:Y O *D _1714
*I *4211:A I *L 0
*CAP
1 4209_1 0.000252
*RES
1 *4210:Y 4209_1 0.875
2 4209_1 *4211:A 0
*END
*D_NET *4212 0.0007344
*CONN
*I *4213:Y O *D _1715
*I *4214:B I *L 0
*CAP
1 4212_1 0.0007344
*RES
1 *4213:Y 4212_1 3.04286
2 4212_1 *4214:B 0
*END
*D_NET *4215 0.0009936
*CONN
*I *4216:Y O *D _1717
*I *4217:C I *L 0
*CAP
1 4215_1 0.0009936
*RES
1 *4216:Y 4215_1 3.94286
2 4215_1 *4217:C 0
*END
*D_NET *4218 0.0005976
*CONN
*I *4219:Y O *D _1718
*I *4220:A I *L 0
*CAP
1 4218_1 0.0005976
*RES
1 *4219:Y 4218_1 2.81429
2 4218_1 *4220:A 0
*END
*D_NET *4221 0.0010008
*CONN
*I *4222:Y O *D _1719
*I *4223:D I *L 0
*CAP
1 4221_1 0.0010008
*RES
1 *4222:Y 4221_1 4.46071
2 4221_1 *4223:D 0
*END
*D_NET *4224 0.0006552
*CONN
*I *4225:Y O *D _1720
*I *4226:B I *L 0
*CAP
1 4224_1 0.0006552
*RES
1 *4225:Y 4224_1 3.34286
2 4224_1 *4226:B 0
*END
*D_NET *4227 0.000252
*CONN
*I *4228:Y O *D _1722
*I *4229:B I *L 0
*CAP
1 4227_1 0.000252
*RES
1 *4228:Y 4227_1 0.875
2 4227_1 *4229:B 0
*END
*D_NET *4230 0.0010152
*CONN
*I *4231:Y O *D _1723
*I *4232:A I *L 0
*CAP
1 4230_1 0.0010152
*RES
1 *4231:Y 4230_1 4.18214
2 4230_1 *4232:A 0
*END
*D_NET *4233 0.001656
*CONN
*I *4234:Y O *D _1724
*I *4235:A I *L 0
*CAP
1 4233_1 0.001656
*RES
1 *4234:Y 4233_1 6.57143
2 4233_1 *4235:A 0
*END
*D_NET *4236 0.001044
*CONN
*I *4237:Y O *D _1725
*I *4238:D I *L 0
*CAP
1 4236_1 0.001044
*RES
1 *4237:Y 4236_1 4.44643
2 4236_1 *4238:D 0
*END
*D_NET *4239 0.0009432
*CONN
*I *4240:Y O *D _1728
*I *4241:C I *L 0
*CAP
1 4239_1 0.0009432
*RES
1 *4240:Y 4239_1 3.93214
2 4239_1 *4241:C 0
*END
*D_NET *4242 0.000252
*CONN
*I *4243:Y O *D _1729
*I *4244:A I *L 0
*CAP
1 4242_1 0.000252
*RES
1 *4243:Y 4242_1 0.875
2 4242_1 *4244:A 0
*END
*D_NET *4245 0.001404
*CONN
*I *4246:Y O *D _1733
*I *4247:B I *L 0
*CAP
1 4245_1 0.001404
*RES
1 *4246:Y 4245_1 5.69643
2 4245_1 *4247:B 0
*END
*D_NET *4248 0.0018432
*CONN
*I *4249:Y O *D _1734
*I *4250:C I *L 0
*CAP
1 4248_1 0.0018432
*RES
1 *4249:Y 4248_1 7.13929
2 4248_1 *4250:C 0
*END
*D_NET *4251 0.0013896
*CONN
*I *4252:Y O *D _1735
*I *4253:A I *L 0
*CAP
1 4251_1 0.0013896
*RES
1 *4252:Y 4251_1 6.05714
2 4251_1 *4253:A 0
*END
*D_NET *4254 0.00108
*CONN
*I *4255:Y O *D _1738
*I *4256:C I *L 0
*CAP
1 4254_1 0.00108
*RES
1 *4255:Y 4254_1 4.24286
2 4254_1 *4256:C 0
*END
*D_NET *4257 0.0024192
*CONN
*I *4258:Y O *D _1739
*I *4259:A I *L 0
*CAP
1 4257_1 0.0024192
*RES
1 *4258:Y 4257_1 11.5214
2 4257_1 *4259:A 0
*END
*D_NET *4260 0.000324
*CONN
*I *4261:Y O *D _1741
*I *4262:B I *L 0
*CAP
1 4260_1 0.000324
*RES
1 *4261:Y 4260_1 1.125
2 4260_1 *4262:B 0
*END
*D_NET *4263 0.0017784
*CONN
*I *4264:Y O *D _1742
*I *4265:B I *L 0
*CAP
1 4263_1 0.0017784
*RES
1 *4264:Y 4263_1 7.07857
2 4263_1 *4265:B 0
*END
*D_NET *4266 0.002808
*CONN
*I *4267:Y O *D _1744
*I *4268:A I *L 0
*CAP
1 4266_1 0.002808
*RES
1 *4267:Y 4266_1 11.3929
2 4266_1 *4268:A 0
*END
*D_NET *4269 0.000324
*CONN
*I *4270:Y O *D _1746
*I *4271:B I *L 0
*CAP
1 4269_1 0.000324
*RES
1 *4270:Y 4269_1 1.125
2 4269_1 *4271:B 0
*END
*D_NET *4272 0.0005472
*CONN
*I *4273:Y O *D _1747
*I *4274:D I *L 0
*CAP
1 4272_1 0.0005472
*RES
1 *4273:Y 4272_1 2.14643
2 4272_1 *4274:D 0
*END
*D_NET *4275 0.0007272
*CONN
*I *4276:Y O *D _1749
*I *4277:C I *L 0
*CAP
1 4275_1 0.0007272
*RES
1 *4276:Y 4275_1 3.18214
2 4275_1 *4277:C 0
*END
*D_NET *4278 0.0009936
*CONN
*I *4279:Y O *D _1750
*I *4280:B I *L 0
*CAP
1 4278_1 0.0009936
*RES
1 *4279:Y 4278_1 3.94286
2 4278_1 *4280:B 0
*END
*D_NET *4281 0.0012168
*CONN
*I *4282:Y O *D _1751
*I *4283:D I *L 0
*CAP
1 4281_1 0.0012168
*RES
1 *4282:Y 4281_1 5.62143
2 4281_1 *4283:D 0
*END
*D_NET *4284 0.0010368
*CONN
*I *4285:Y O *D _1755
*I *4286:C I *L 0
*CAP
1 4284_1 0.0010368
*RES
1 *4285:Y 4284_1 4.58571
2 4284_1 *4286:C 0
*END
*D_NET *4287 0.0005472
*CONN
*I *4288:Y O *D _1756
*I *4289:D I *L 0
*CAP
1 4287_1 0.0005472
*RES
1 *4288:Y 4287_1 2.14643
2 4287_1 *4289:D 0
*END
*D_NET *4290 0.0009
*CONN
*I *4291:Y O *D _1758
*I *4292:C I *L 0
*CAP
1 4290_1 0.0009
*RES
1 *4291:Y 4290_1 4.35714
2 4290_1 *4292:C 0
*END
*D_NET *4293 0.0016056
*CONN
*I *4294:Y O *D _1759
*I *4295:D I *L 0
*CAP
1 4293_1 0.0016056
*RES
1 *4294:Y 4293_1 7.13571
2 4293_1 *4295:D 0
*END
*D_NET *4296 0.001152
*CONN
*I *4297:Y O *D _1763
*I *4298:B I *L 0
*CAP
1 4296_1 0.001152
*RES
1 *4297:Y 4296_1 4.82143
2 4296_1 *4298:B 0
*END
*D_NET *4299 0.0011304
*CONN
*I *4300:Y O *D _1764
*I *4301:A I *L 0
*CAP
1 4299_1 0.0011304
*RES
1 *4300:Y 4299_1 4.41786
2 4299_1 *4301:A 0
*END
*D_NET *4302 0.000936
*CONN
*I *4303:Y O *D _1765
*I *4304:D I *L 0
*CAP
1 4302_1 0.000936
*RES
1 *4303:Y 4302_1 4.07143
2 4302_1 *4304:D 0
*END
*D_NET *4305 0.000324
*CONN
*I *4306:Y O *D _1767
*I *4307:B I *L 0
*CAP
1 4305_1 0.000324
*RES
1 *4306:Y 4305_1 1.125
2 4305_1 *4307:B 0
*END
*D_NET *4308 0.0006984
*CONN
*I *4309:Y O *D _1768
*I *4310:A I *L 0
*CAP
1 4308_1 0.0006984
*RES
1 *4309:Y 4308_1 3
2 4308_1 *4310:A 0
*END
*D_NET *4311 0.000396
*CONN
*I *4312:Y O *D _1769
*I *4313:D I *L 0
*CAP
1 4311_1 0.000396
*RES
1 *4312:Y 4311_1 1.375
2 4311_1 *4313:D 0
*END
*D_NET *4314 0.0006552
*CONN
*I *4315:Y O *D _1771
*I *4316:B I *L 0
*CAP
1 4314_1 0.0006552
*RES
1 *4315:Y 4314_1 3.34286
2 4314_1 *4316:B 0
*END
*D_NET *4317 0.0016272
*CONN
*I *4318:Y O *D _1772
*I *4319:C I *L 0
*CAP
1 4317_1 0.0016272
*RES
1 *4318:Y 4317_1 6.71786
2 4317_1 *4319:C 0
*END
*D_NET *4320 0.000504
*CONN
*I *4321:Y O *D _1773
*I *4322:D I *L 0
*CAP
1 4320_1 0.000504
*RES
1 *4321:Y 4320_1 1.75
2 4320_1 *4322:D 0
*END
*D_NET *4323 0.000252
*CONN
*I *4324:Y O *D _1775
*I *4325:A I *L 0
*CAP
1 4323_1 0.000252
*RES
1 *4324:Y 4323_1 0.875
2 4323_1 *4325:A 0
*END
*D_NET *4326 0.0004752
*CONN
*I *4327:Y O *D _1778
*I *4328:C I *L 0
*CAP
1 4326_1 0.0004752
*RES
1 *4327:Y 4326_1 1.89643
2 4326_1 *4328:C 0
*END
*D_NET *4329 0.0008352
*CONN
*I *4330:Y O *D _1779
*I *4331:D I *L 0
*CAP
1 4329_1 0.0008352
*RES
1 *4330:Y 4329_1 3.96786
2 4329_1 *4331:D 0
*END
*D_NET *4332 0.0012024
*CONN
*I *4333:Y O *D _1780
*I *4334:C I *L 0
*CAP
1 4332_1 0.0012024
*RES
1 *4333:Y 4332_1 4.66786
2 4332_1 *4334:C 0
*END
*D_NET *4335 0.000324
*CONN
*I *4336:Y O *D _1782
*I *4337:B I *L 0
*CAP
1 4335_1 0.000324
*RES
1 *4336:Y 4335_1 1.125
2 4335_1 *4337:B 0
*END
*D_NET *4338 0.001152
*CONN
*I *4339:Y O *D _1783
*I *4340:B I *L 0
*CAP
1 4338_1 0.001152
*RES
1 *4339:Y 4338_1 5.23214
2 4338_1 *4340:B 0
*END
*D_NET *4341 0.0016128
*CONN
*I *4342:Y O *D _1784
*I *4343:C I *L 0
*CAP
1 4341_1 0.0016128
*RES
1 *4342:Y 4341_1 7.81786
2 4341_1 *4343:C 0
*END
*D_NET *4344 0.0012816
*CONN
*I *4345:Y O *D _1785
*I *4346:D I *L 0
*CAP
1 4344_1 0.0012816
*RES
1 *4345:Y 4344_1 6.01071
2 4344_1 *4346:D 0
*END
*D_NET *4347 0.000504
*CONN
*I *4348:Y O *D _1789
*I *4349:C I *L 0
*CAP
1 4347_1 0.000504
*RES
1 *4348:Y 4347_1 1.75
2 4347_1 *4349:C 0
*END
*D_NET *4350 0.0009864
*CONN
*I *4351:Y O *D _1790
*I *4352:A I *L 0
*CAP
1 4350_1 0.0009864
*RES
1 *4351:Y 4350_1 4.32857
2 4350_1 *4352:A 0
*END
*D_NET *4353 0.000216
*CONN
*I *4354:Y O *D _1791
*I *4355:D I *L 0
*CAP
1 4353_1 0.000216
*RES
1 *4354:Y 4353_1 0.75
2 4353_1 *4355:D 0
*END
*D_NET *4356 0.0009
*CONN
*I *4357:Y O *D _1793
*I *4358:C I *L 0
*CAP
1 4356_1 0.0009
*RES
1 *4357:Y 4356_1 3.61786
2 4356_1 *4358:C 0
*END
*D_NET *4359 0.0005976
*CONN
*I *4360:Y O *D _1794
*I *4361:D I *L 0
*CAP
1 4359_1 0.0005976
*RES
1 *4360:Y 4359_1 2.81429
2 4359_1 *4361:D 0
*END
*D_NET *4362 0.0004896
*CONN
*I *4363:Y O *D _1795
*I *4364:B I *L 0
*CAP
1 4362_1 0.0004896
*RES
1 *4363:Y 4362_1 2.02857
2 4362_1 *4364:B 0
*END
*D_NET *4365 0.0009504
*CONN
*I *4366:Y O *D _1797
*I *4367:A I *L 0
*CAP
1 4365_1 0.0009504
*RES
1 *4366:Y 4365_1 3.79286
2 4365_1 *4367:A 0
*END
*D_NET *4368 0.000252
*CONN
*I *4369:Y O *D _1798
*I *4370:D I *L 0
*CAP
1 4368_1 0.000252
*RES
1 *4369:Y 4368_1 0.875
2 4368_1 *4370:D 0
*END
*D_NET *4371 0.00036
*CONN
*I *4372:Y O *D _1799
*I *4373:A I *L 0
*CAP
1 4371_1 0.00036
*RES
1 *4372:Y 4371_1 1.25
2 4371_1 *4373:A 0
*END
*D_NET *4374 0.0013968
*CONN
*I *4375:Y O *D _1800
*I *4376:A I *L 0
*CAP
1 4374_1 0.0013968
*RES
1 *4375:Y 4374_1 5.83571
2 4374_1 *4376:A 0
*END
*D_NET *4377 0.006156
*CONN
*I *4378:Y O *D _1804
*I *4379:C I *L 0
*CAP
1 4377_1 0.006156
*RES
1 *4378:Y 4377_1 29.5071
2 4377_1 *4379:C 0
*END
*D_NET *4380 0.0011088
*CONN
*I *4381:Y O *D _1806
*I *4382:C I *L 0
*CAP
1 4380_1 0.0011088
*RES
1 *4381:Y 4380_1 5.24643
2 4380_1 *4382:C 0
*END
*D_NET *4383 0.0013968
*CONN
*I *4384:Y O *D _1807
*I *4385:D I *L 0
*CAP
1 4383_1 0.0013968
*RES
1 *4384:Y 4383_1 5.83571
2 4383_1 *4385:D 0
*END
*D_NET *4386 0.000252
*CONN
*I *4387:Y O *D _1808
*I *4388:A I *L 0
*CAP
1 4386_1 0.000252
*RES
1 *4387:Y 4386_1 0.875
2 4386_1 *4388:A 0
*END
*D_NET *4389 0.0006624
*CONN
*I *4390:Y O *D _1810
*I *4391:C I *L 0
*CAP
1 4389_1 0.0006624
*RES
1 *4390:Y 4389_1 2.79286
2 4389_1 *4391:C 0
*END
*D_NET *4392 0.0018648
*CONN
*I *4393:Y O *D _1811
*I *4394:D I *L 0
*CAP
1 4392_1 0.0018648
*RES
1 *4393:Y 4392_1 8.2
2 4392_1 *4394:D 0
*END
*D_NET *4395 0.000468
*CONN
*I *4396:Y O *D _1812
*I *4397:B I *L 0
*CAP
1 4395_1 0.000468
*RES
1 *4396:Y 4395_1 1.625
2 4395_1 *4397:B 0
*END
*D_NET *4398 0.0006624
*CONN
*I *4399:Y O *D _1814
*I *4400:B I *L 0
*CAP
1 4398_1 0.0006624
*RES
1 *4399:Y 4398_1 3.20357
2 4398_1 *4400:B 0
*END
*D_NET *4401 0.0010224
*CONN
*I *4402:Y O *D _1816
*I *4403:A I *L 0
*CAP
1 4401_1 0.0010224
*RES
1 *4402:Y 4401_1 4.37143
2 4401_1 *4403:A 0
*END
*D_NET *4404 0.000468
*CONN
*I *4405:Y O *D _1817
*I *4406:D I *L 0
*CAP
1 4404_1 0.000468
*RES
1 *4405:Y 4404_1 1.625
2 4404_1 *4406:D 0
*END
*D_NET *4407 0.000972
*CONN
*I *4408:Y O *D _1818
*I *4409:B I *L 0
*CAP
1 4407_1 0.000972
*RES
1 *4408:Y 4407_1 4.60714
2 4407_1 *4409:B 0
*END
*D_NET *4410 0.0011664
*CONN
*I *4411:Y O *D _1819
*I *4412:A I *L 0
*CAP
1 4410_1 0.0011664
*RES
1 *4411:Y 4410_1 5.36429
2 4410_1 *4412:A 0
*END
*D_NET *4413 0.000792
*CONN
*I *4414:Y O *D _1820
*I *4415:D I *L 0
*CAP
1 4413_1 0.000792
*RES
1 *4414:Y 4413_1 3.57143
2 4413_1 *4415:D 0
*END
*D_NET *4416 0.0013032
*CONN
*I *4417:Y O *D _1826
*I *4418:A I *L 0
*CAP
1 4416_1 0.0013032
*RES
1 *4417:Y 4416_1 5.18214
2 4416_1 *4418:A 0
*END
*D_NET *4419 0.0009
*CONN
*I *4420:Y O *D _1827
*I *4421:D I *L 0
*CAP
1 4419_1 0.0009
*RES
1 *4420:Y 4419_1 4.35714
2 4419_1 *4421:D 0
*END
*D_NET *4422 0.001368
*CONN
*I *4423:Y O *D _1828
*I *4424:B I *L 0
*CAP
1 4422_1 0.001368
*RES
1 *4423:Y 4422_1 5.98214
2 4422_1 *4424:B 0
*END
*D_NET *4425 0.000252
*CONN
*I *4426:Y O *D _1829
*I *4427:D I *L 0
*CAP
1 4425_1 0.000252
*RES
1 *4426:Y 4425_1 0.875
2 4425_1 *4427:D 0
*END
*D_NET *4428 0.0016272
*CONN
*I *4429:Y O *D _1832
*I *4430:B I *L 0
*CAP
1 4428_1 0.0016272
*RES
1 *4429:Y 4428_1 6.71786
2 4428_1 *4430:B 0
*END
*D_NET *4431 0.0010728
*CONN
*I *4432:Y O *D _1833
*I *4433:A I *L 0
*CAP
1 4431_1 0.0010728
*RES
1 *4432:Y 4431_1 5.12143
2 4431_1 *4433:A 0
*END
*D_NET *4434 0.000324
*CONN
*I *4435:Y O *D _1834
*I *4436:B I *L 0
*CAP
1 4434_1 0.000324
*RES
1 *4435:Y 4434_1 1.125
2 4434_1 *4436:B 0
*END
*D_NET *4437 0.000504
*CONN
*I *4438:Y O *D _1835
*I *4439:D I *L 0
*CAP
1 4437_1 0.000504
*RES
1 *4438:Y 4437_1 1.75
2 4437_1 *4439:D 0
*END
*D_NET *4440 0.000324
*CONN
*I *4441:Y O *D _1836
*I *4442:B I *L 0
*CAP
1 4440_1 0.000324
*RES
1 *4441:Y 4440_1 1.125
2 4440_1 *4442:B 0
*END
*D_NET *4443 0.0006552
*CONN
*I *4444:Y O *D _1838
*I *4445:A I *L 0
*CAP
1 4443_1 0.0006552
*RES
1 *4444:Y 4443_1 3.34286
2 4443_1 *4445:A 0
*END
*D_NET *4446 0.0019584
*CONN
*I *4447:Y O *D _1839
*I *4448:A I *L 0
*CAP
1 4446_1 0.0019584
*RES
1 *4447:Y 4446_1 8.68929
2 4446_1 *4448:A 0
*END
*D_NET *4449 0.000288
*CONN
*I *4450:Y O *D _1840
*I *4451:B I *L 0
*CAP
1 4449_1 0.000288
*RES
1 *4450:Y 4449_1 1
2 4449_1 *4451:B 0
*END
*D_NET *4452 0.000504
*CONN
*I *4453:Y O *D _1841
*I *4454:D I *L 0
*CAP
1 4452_1 0.000504
*RES
1 *4453:Y 4452_1 1.75
2 4452_1 *4454:D 0
*END
*D_NET *4455 0.0023832
*CONN
*P *4455 O
*I *4456:A I *L 0
*CAP
1 4455_1 0.0023832
*RES
1 *4455 4455_1 11.3964
2 4455_1 *4456:A 0
*END
*D_NET *4457 0.0014112
*CONN
*I *4458:Y O *D _1844
*I *4459:C I *L 0
*CAP
1 4457_1 0.0014112
*RES
1 *4458:Y 4457_1 7.2
2 4457_1 *4459:C 0
*END
*D_NET *4460 0.0010224
*CONN
*I *4461:Y O *D _1845
*I *4462:D I *L 0
*CAP
1 4460_1 0.0010224
*RES
1 *4461:Y 4460_1 4.45357
2 4460_1 *4462:D 0
*END
*D_NET *4463 0.00216
*CONN
*P *4463 O
*I *4464:A I *L 0
*CAP
1 4463_1 0.00216
*RES
1 *4463 4463_1 9.55357
2 4463_1 *4464:A 0
*END
*D_NET *4465 0.0007848
*CONN
*I *4466:Y O *D _1847
*I *4467:C I *L 0
*CAP
1 4465_1 0.0007848
*RES
1 *4466:Y 4465_1 3.71071
2 4465_1 *4467:C 0
*END
*D_NET *4468 0.0009432
*CONN
*I *4469:Y O *D _1848
*I *4470:D I *L 0
*CAP
1 4468_1 0.0009432
*RES
1 *4469:Y 4468_1 3.93214
2 4468_1 *4470:D 0
*END
*D_NET *4471 0.000252
*CONN
*I *4472:Y O *D _1849
*I *4473:A I *L 0
*CAP
1 4471_1 0.000252
*RES
1 *4472:Y 4471_1 0.875
2 4471_1 *4473:A 0
*END
*D_NET *4474 0.0020592
*CONN
*P *4474 O
*I *4475:A I *L 0
*CAP
1 4474_1 0.0020592
*RES
1 *4474 4474_1 8.62857
2 4474_1 *4475:A 0
*END
*D_NET *4476 0.0031896
*CONN
*I *4477:Y O *D _1850
*I *4478:C I *L 0
*CAP
1 4476_1 0.0031896
*RES
1 *4477:Y 4476_1 12.3071
2 4476_1 *4478:C 0
*END
*D_NET *4479 0.0006552
*CONN
*I *4480:Y O *D _1851
*I *4481:D I *L 0
*CAP
1 4479_1 0.0006552
*RES
1 *4480:Y 4479_1 2.52143
2 4479_1 *4481:D 0
*END
*D_NET *4482 0.000288
*CONN
*I *4483:Y O *D _1852
*I *4484:A I *L 0
*CAP
1 4482_1 0.000288
*RES
1 *4483:Y 4482_1 1
2 4482_1 *4484:A 0
*END
*D_NET *4485 0.0018936
*CONN
*P *4485 O
*I *4486:A I *L 0
*CAP
1 4485_1 0.0018936
*RES
1 *4485 4485_1 8.46429
2 4485_1 *4486:A 0
*END
*D_NET *4487 0.0038592
*CONN
*I *4488:Y O *D _1853
*I *4489:C I *L 0
*CAP
1 4487_1 0.0038592
*RES
1 *4488:Y 4487_1 14.4679
2 4487_1 *4489:C 0
*END
*D_NET *4490 0.0007416
*CONN
*I *4491:Y O *D _1854
*I *4492:D I *L 0
*CAP
1 4490_1 0.0007416
*RES
1 *4491:Y 4490_1 3.31429
2 4490_1 *4492:D 0
*END
*D_NET *4493 0.0014472
*CONN
*P *4493 O
*I *4494:A I *L 0
*CAP
1 4493_1 0.0014472
*RES
1 *4493 4493_1 6.91429
2 4493_1 *4494:A 0
*END
*D_NET *4495 0.002952
*CONN
*I *4496:Y O *D _1856
*I *4497:C I *L 0
*CAP
1 4495_1 0.002952
*RES
1 *4496:Y 4495_1 14.3571
2 4495_1 *4497:C 0
*END
*D_NET *4498 0.000864
*CONN
*I *4499:Y O *D _1857
*I *4500:D I *L 0
*CAP
1 4498_1 0.000864
*RES
1 *4499:Y 4498_1 4.23214
2 4498_1 *4500:D 0
*END
*D_NET *4501 0.000252
*CONN
*I *4502:Y O *D _1858
*I *4503:A I *L 0
*CAP
1 4501_1 0.000252
*RES
1 *4502:Y 4501_1 0.875
2 4501_1 *4503:A 0
*END
*D_NET *4504 0.001404
*CONN
*P *4504 O
*I *4505:A I *L 0
*CAP
1 4504_1 0.001404
*RES
1 *4504 4504_1 5.94286
2 4504_1 *4505:A 0
*END
*D_NET *4506 0.0019008
*CONN
*I *4507:Y O *D _1859
*I *4508:C I *L 0
*CAP
1 4506_1 0.0019008
*RES
1 *4507:Y 4506_1 8.81786
2 4506_1 *4508:C 0
*END
*D_NET *4509 0.0008424
*CONN
*I *4510:Y O *D _1860
*I *4511:D I *L 0
*CAP
1 4509_1 0.0008424
*RES
1 *4510:Y 4509_1 3.82857
2 4509_1 *4511:D 0
*END
*D_NET *4512 0.000252
*CONN
*I *4513:Y O *D _1861
*I *4514:A I *L 0
*CAP
1 4512_1 0.000252
*RES
1 *4513:Y 4512_1 0.875
2 4512_1 *4514:A 0
*END
*D_NET *4515 0.0011376
*CONN
*P *4515 O
*I *4516:A I *L 0
*CAP
1 4515_1 0.0011376
*RES
1 *4515 4515_1 5.1
2 4515_1 *4516:A 0
*END
*D_NET *4517 0.0027072
*CONN
*I *4518:Y O *D _1862
*I *4519:C I *L 0
*CAP
1 4517_1 0.0027072
*RES
1 *4518:Y 4517_1 11.2893
2 4517_1 *4519:C 0
*END
*D_NET *4520 0.0010152
*CONN
*I *4521:Y O *D _1863
*I *4522:D I *L 0
*CAP
1 4520_1 0.0010152
*RES
1 *4521:Y 4520_1 4.59286
2 4520_1 *4522:D 0
*END
*D_NET *4523 0.0007704
*CONN
*I *4524:Q O *D _1968
*I *4525:A I *L 0
*CAP
1 4523_1 0.0007704
*RES
1 *4524:Q 4523_1 3.57857
2 4523_1 *4525:A 0
*END
*D_NET *4526 0.0190584
*CONN
*P *4526 O
*I *4527:A I *L 0
*CAP
1 4526_1 0.0190584
*RES
1 *4526 4526_1 95.8286
2 4526_1 *4527:A 0
*END
*D_NET *4528 0.0227592
*CONN
*I *4529:Y O *D _1865
*I *4530:C I *L 0
*CAP
1 4528_1 0.0227592
*RES
1 *4529:Y 4528_1 108.432
2 4528_1 *4530:C 0
*END
*D_NET *4531 0.0009216
*CONN
*I *4532:Y O *D _1866
*I *4533:D I *L 0
*CAP
1 4531_1 0.0009216
*RES
1 *4532:Y 4531_1 4.35
2 4531_1 *4533:D 0
*END
*D_NET *4534 0.0024624
*CONN
*I *4535:Y O *D _1868
*I *4536:B I *L 0
*CAP
1 4534_1 0.0024624
*RES
1 *4535:Y 4534_1 9.86429
2 4534_1 *4536:B 0
*END
*D_NET *4537 0.000216
*CONN
*I *4538:Y O *D _1869
*I *4539:B I *L 0
*CAP
1 4537_1 0.000216
*RES
1 *4538:Y 4537_1 0.75
2 4537_1 *4539:B 0
*END
*D_NET *4540 0.0011088
*CONN
*I *4541:Y O *D _1873
*I *4542:C I *L 0
*CAP
1 4540_1 0.0011088
*RES
1 *4541:Y 4540_1 5.24643
2 4540_1 *4542:C 0
*END
*D_NET *4543 0.0014904
*CONN
*I *4544:Y O *D _1874
*I *4545:B I *L 0
*CAP
1 4543_1 0.0014904
*RES
1 *4544:Y 4543_1 6.07857
2 4543_1 *4545:B 0
*END
*D_NET *4546 0.000288
*CONN
*I *4547:Y O *D _1875
*I *4548:B I *L 0
*CAP
1 4546_1 0.000288
*RES
1 *4547:Y 4546_1 1
2 4546_1 *4548:B 0
*END
*D_NET *4549 0.0021456
*CONN
*I *4550:Y O *D _1877
*I *4551:A I *L 0
*CAP
1 4549_1 0.0021456
*RES
1 *4550:Y 4549_1 9.42143
2 4549_1 *4551:A 0
*END
*D_NET *4552 0.0009072
*CONN
*I *4553:Y O *D _1878
*I *4554:A I *L 0
*CAP
1 4552_1 0.0009072
*RES
1 *4553:Y 4552_1 3.64286
2 4552_1 *4554:A 0
*END
*D_NET *4555 0.0010512
*CONN
*I *4556:Y O *D _1879
*I *4557:D I *L 0
*CAP
1 4555_1 0.0010512
*RES
1 *4556:Y 4555_1 5.12857
2 4555_1 *4557:D 0
*END
*D_NET *4558 0.0005904
*CONN
*I *4559:Y O *D _1881
*I *4560:B I *L 0
*CAP
1 4558_1 0.0005904
*RES
1 *4559:Y 4558_1 2.54286
2 4558_1 *4560:B 0
*END
*D_NET *4561 0.0009144
*CONN
*I *4562:Y O *D _1884
*I *4563:B I *L 0
*CAP
1 4561_1 0.0009144
*RES
1 *4562:Y 4561_1 3.66786
2 4561_1 *4563:B 0
*END
*D_NET *4564 0.0013824
*CONN
*I *4565:Y O *D _1885
*I *4566:A I *L 0
*CAP
1 4564_1 0.0013824
*RES
1 *4565:Y 4564_1 6.525
2 4564_1 *4566:A 0
*END
*D_NET *4567 0.0017496
*CONN
*I *4568:Y O *D _1886
*I *4569:D I *L 0
*CAP
1 4567_1 0.0017496
*RES
1 *4568:Y 4567_1 8.04643
2 4567_1 *4569:D 0
*END
*D_NET *4570 0.0006552
*CONN
*I *4571:Y O *D _1888
*I *4572:B I *L 0
*CAP
1 4570_1 0.0006552
*RES
1 *4571:Y 4570_1 3.34286
2 4570_1 *4572:B 0
*END
*D_NET *4573 0.0005112
*CONN
*I *4574:Y O *D _1889
*I *4575:B I *L 0
*CAP
1 4573_1 0.0005112
*RES
1 *4574:Y 4573_1 2.02143
2 4573_1 *4575:B 0
*END
*D_NET *4576 0.0011592
*CONN
*I *4577:Y O *D _1892
*I *4578:B I *L 0
*CAP
1 4576_1 0.0011592
*RES
1 *4577:Y 4576_1 5.09286
2 4576_1 *4578:B 0
*END
*D_NET *4579 0.00108
*CONN
*I *4580:Y O *D _1893
*I *4581:A I *L 0
*CAP
1 4579_1 0.00108
*RES
1 *4580:Y 4579_1 4.98214
2 4579_1 *4581:A 0
*END
*D_NET *4582 0.000324
*CONN
*I *4583:Y O *D _1894
*I *4584:D I *L 0
*CAP
1 4582_1 0.000324
*RES
1 *4583:Y 4582_1 1.125
2 4582_1 *4584:D 0
*END
*D_NET *4585 0.000972
*CONN
*I *4586:Y O *D _1895
*I *4587:A I *L 0
*CAP
1 4585_1 0.000972
*RES
1 *4586:Y 4585_1 3.375
2 4585_1 *4587:A 0
*END
*D_NET *4588 0.0022896
*CONN
*I *4589:Y O *D _1896
*I *4590:B I *L 0
*CAP
1 4588_1 0.0022896
*RES
1 *4589:Y 4588_1 9.92143
2 4588_1 *4590:B 0
*END
*D_NET *4591 0.0005112
*CONN
*I *4592:Y O *D _1897
*I *4593:D I *L 0
*CAP
1 4591_1 0.0005112
*RES
1 *4592:Y 4591_1 2.02143
2 4591_1 *4593:D 0
*END
*D_NET *4594 0.001836
*CONN
*I *4595:Y O *D _1900
*I *4596:C I *L 0
*CAP
1 4594_1 0.001836
*RES
1 *4595:Y 4594_1 7.60714
2 4594_1 *4596:C 0
*END
*D_NET *4597 0.0034992
*CONN
*I *4598:Y O *D _1901
*I *4599:B I *L 0
*CAP
1 4597_1 0.0034992
*RES
1 *4598:Y 4597_1 16.9143
2 4597_1 *4599:B 0
*END
*D_NET *4600 0.0004392
*CONN
*I *4601:Y O *D _1905
*I *4602:C I *L 0
*CAP
1 4600_1 0.0004392
*RES
1 *4601:Y 4600_1 1.77143
2 4600_1 *4602:C 0
*END
*D_NET *4603 0.0013104
*CONN
*I *4604:Y O *D _1906
*I *4605:C I *L 0
*CAP
1 4603_1 0.0013104
*RES
1 *4604:Y 4603_1 5.45357
2 4603_1 *4605:C 0
*END
*D_NET *4606 0.0013824
*CONN
*I *4607:Y O *D _1908
*I *4608:B I *L 0
*CAP
1 4606_1 0.0013824
*RES
1 *4607:Y 4606_1 6.11429
2 4606_1 *4608:B 0
*END
*D_NET *4609 0.0028944
*CONN
*I *4610:Y O *D _1909
*I *4611:A I *L 0
*CAP
1 4609_1 0.0028944
*RES
1 *4610:Y 4609_1 13.5821
2 4609_1 *4611:A 0
*END
*D_NET *4612 0.000864
*CONN
*I *4613:Y O *D _1911
*I *4614:A I *L 0
*CAP
1 4612_1 0.000864
*RES
1 *4613:Y 4612_1 3.575
2 4612_1 *4614:A 0
*END
*D_NET *4615 0.0012888
*CONN
*I *4616:Y O *D _1912
*I *4617:B I *L 0
*CAP
1 4615_1 0.0012888
*RES
1 *4616:Y 4615_1 5.87143
2 4615_1 *4617:B 0
*END
*D_NET *4618 0.0004752
*CONN
*I *4619:Y O *D _1913
*I *4620:A I *L 0
*CAP
1 4618_1 0.0004752
*RES
1 *4619:Y 4618_1 1.89643
2 4618_1 *4620:A 0
*END
*D_NET *4621 0.000504
*CONN
*I *4622:Y O *D _1914
*I *4623:B I *L 0
*CAP
1 4621_1 0.000504
*RES
1 *4622:Y 4621_1 2.57143
2 4621_1 *4623:B 0
*END
*D_NET *4624 0.0004752
*CONN
*I *4625:Y O *D _1915
*I *4626:C I *L 0
*CAP
1 4624_1 0.0004752
*RES
1 *4625:Y 4624_1 1.89643
2 4624_1 *4626:C 0
*END
*D_NET *4627 0.0008064
*CONN
*I *4628:Y O *D _1916
*I *4629:D I *L 0
*CAP
1 4627_1 0.0008064
*RES
1 *4628:Y 4627_1 3.70357
2 4627_1 *4629:D 0
*END
*D_NET *4630 0.0031464
*CONN
*I *4631:Y O *D _1917
*I *4632:C I *L 0
*CAP
1 4630_1 0.0031464
*RES
1 *4631:Y 4630_1 12.2393
2 4630_1 *4632:C 0
*END
*D_NET *4633 0.0013032
*CONN
*I *4634:Y O *D _1918
*I *4635:B I *L 0
*CAP
1 4633_1 0.0013032
*RES
1 *4634:Y 4633_1 5.18214
2 4633_1 *4635:B 0
*END
*D_NET *4636 0.000612
*CONN
*I *4637:Y O *D _1919
*I *4638:C I *L 0
*CAP
1 4636_1 0.000612
*RES
1 *4637:Y 4636_1 2.53571
2 4636_1 *4638:C 0
*END
*D_NET *4639 0.000864
*CONN
*I *4640:Y O *D _1920
*I *4641:A I *L 0
*CAP
1 4639_1 0.000864
*RES
1 *4640:Y 4639_1 4.23214
2 4639_1 *4641:A 0
*END
*D_NET *4642 0.0008568
*CONN
*I *4643:Y O *D _1921
*I *4644:B I *L 0
*CAP
1 4642_1 0.0008568
*RES
1 *4643:Y 4642_1 3.55
2 4642_1 *4644:B 0
*END
*D_NET *4645 0.0042696
*CONN
*I *4646:Y O *D _1922
*I *4647:A I *L 0
*CAP
1 4645_1 0.0042696
*RES
1 *4646:Y 4645_1 15.975
2 4645_1 *4647:A 0
*END
*D_NET *4648 0.001908
*CONN
*I *4649:Y O *D _1923
*I *4650:B I *L 0
*CAP
1 4648_1 0.001908
*RES
1 *4649:Y 4648_1 8.67857
2 4648_1 *4650:B 0
*END
*D_NET *4651 0.0013248
*CONN
*I *4652:Y O *D _1924
*I *4653:A I *L 0
*CAP
1 4651_1 0.0013248
*RES
1 *4652:Y 4651_1 5.58571
2 4651_1 *4653:A 0
*END
*D_NET *4654 0.00144
*CONN
*I *4655:Y O *D _1925
*I *4656:B I *L 0
*CAP
1 4654_1 0.00144
*RES
1 *4655:Y 4654_1 6.64286
2 4654_1 *4656:B 0
*END
*D_NET *4657 0.0004392
*CONN
*I *4658:Y O *D _1926
*I *4659:A I *L 0
*CAP
1 4657_1 0.0004392
*RES
1 *4658:Y 4657_1 1.77143
2 4657_1 *4659:A 0
*END
*D_NET *4660 0.001224
*CONN
*I *4661:Y O *D _1929
*I *4662:A I *L 0
*CAP
1 4660_1 0.001224
*RES
1 *4661:Y 4660_1 5.07143
2 4660_1 *4662:A 0
*END
*D_NET *4663 0.0004392
*CONN
*I *4664:Y O *D _1930
*I *4665:C I *L 0
*CAP
1 4663_1 0.0004392
*RES
1 *4664:Y 4663_1 1.77143
2 4663_1 *4665:C 0
*END
*D_NET *4666 0.0013464
*CONN
*I *4667:Y O *D _1931
*I *4668:B I *L 0
*CAP
1 4666_1 0.0013464
*RES
1 *4667:Y 4666_1 5.57857
2 4666_1 *4668:B 0
*END
*D_NET *4669 0.000324
*CONN
*I *4670:Y O *D _1932
*I *4671:B I *L 0
*CAP
1 4669_1 0.000324
*RES
1 *4670:Y 4669_1 1.125
2 4669_1 *4671:B 0
*END
*D_NET *4672 0.0006264
*CONN
*I *4673:Y O *D _1934
*I *4674:C I *L 0
*CAP
1 4672_1 0.0006264
*RES
1 *4673:Y 4672_1 2.66786
2 4672_1 *4674:C 0
*END
*D_NET *4675 0.0007488
*CONN
*I *4676:Y O *D _1935
*I *4677:B I *L 0
*CAP
1 4675_1 0.0007488
*RES
1 *4676:Y 4675_1 3.58571
2 4675_1 *4677:B 0
*END
*D_NET *4678 0.0016128
*CONN
*I *4679:Y O *D _1936
*I *4680:B I *L 0
*CAP
1 4678_1 0.0016128
*RES
1 *4679:Y 4678_1 6.99643
2 4678_1 *4680:B 0
*END
*D_NET *4681 0.0009432
*CONN
*I *4682:Y O *D _1938
*I *4683:C I *L 0
*CAP
1 4681_1 0.0009432
*RES
1 *4682:Y 4681_1 3.52143
2 4681_1 *4683:C 0
*END
*D_NET *4684 0.0015624
*CONN
*I *4685:Y O *D _1939
*I *4686:B I *L 0
*CAP
1 4684_1 0.0015624
*RES
1 *4685:Y 4684_1 7.97143
2 4684_1 *4686:B 0
*END
*D_NET *4687 0.000324
*CONN
*I *4688:Y O *D _1940
*I *4689:B I *L 0
*CAP
1 4687_1 0.000324
*RES
1 *4688:Y 4687_1 1.125
2 4687_1 *4689:B 0
*END
*D_NET *4690 0.001476
*CONN
*I *4691:Y O *D _1942
*I *4692:A I *L 0
*CAP
1 4690_1 0.001476
*RES
1 *4691:Y 4690_1 6.76786
2 4690_1 *4692:A 0
*END
*D_NET *4693 0.0037008
*CONN
*I *4694:Y O *D _1943
*I *4695:C I *L 0
*CAP
1 4693_1 0.0037008
*RES
1 *4694:Y 4693_1 14.0821
2 4693_1 *4695:C 0
*END
*D_NET *4696 0.00108
*CONN
*I *4697:Y O *D _1944
*I *4698:B I *L 0
*CAP
1 4696_1 0.00108
*RES
1 *4697:Y 4696_1 4.57143
2 4696_1 *4698:B 0
*END
*D_NET *4699 0.0021528
*CONN
*I *4700:Y O *D _1946
*I *4701:A I *L 0
*CAP
1 4699_1 0.0021528
*RES
1 *4700:Y 4699_1 9.52857
2 4699_1 *4701:A 0
*END
*D_NET *4702 0.0008928
*CONN
*I *4703:Y O *D _1947
*I *4704:C I *L 0
*CAP
1 4702_1 0.0008928
*RES
1 *4703:Y 4702_1 3.675
2 4702_1 *4704:C 0
*END
*D_NET *4705 0.0016488
*CONN
*I *4706:Y O *D _1948
*I *4707:B I *L 0
*CAP
1 4705_1 0.0016488
*RES
1 *4706:Y 4705_1 7.12143
2 4705_1 *4707:B 0
*END
*D_NET *4708 0.00036
*CONN
*I *4709:Y O *D _1949
*I *4710:B I *L 0
*CAP
1 4708_1 0.00036
*RES
1 *4709:Y 4708_1 1.25
2 4708_1 *4710:B 0
*END
*D_NET *4711 0.0016704
*CONN
*I *4712:Y O *D _1951
*I *4713:A I *L 0
*CAP
1 4711_1 0.0016704
*RES
1 *4712:Y 4711_1 7.93571
2 4711_1 *4713:A 0
*END
*D_NET *4714 0.0004392
*CONN
*I *4715:Y O *D _1952
*I *4716:C I *L 0
*CAP
1 4714_1 0.0004392
*RES
1 *4715:Y 4714_1 1.77143
2 4714_1 *4716:C 0
*END
*D_NET *4717 0.0007632
*CONN
*I *4718:Y O *D _1953
*I *4719:B I *L 0
*CAP
1 4717_1 0.0007632
*RES
1 *4718:Y 4717_1 2.89643
2 4717_1 *4719:B 0
*END
*D_NET *4720 0.0014616
*CONN
*I *4721:Y O *D _1954
*I *4722:B I *L 0
*CAP
1 4720_1 0.0014616
*RES
1 *4721:Y 4720_1 6.63571
2 4720_1 *4722:B 0
*END
*D_NET *4723 0.0036792
*CONN
*I *4724:Y O *D _1956
*I *4725:C I *L 0
*CAP
1 4723_1 0.0036792
*RES
1 *4724:Y 4723_1 13.8429
2 4723_1 *4725:C 0
*END
*D_NET *4726 0.0020592
*CONN
*I *4727:Y O *D _1957
*I *4728:B I *L 0
*CAP
1 4726_1 0.0020592
*RES
1 *4727:Y 4726_1 9.45
2 4726_1 *4728:B 0
*END
*D_NET *4729 0.0010224
*CONN
*I *4730:Y O *D _1958
*I *4731:B I *L 0
*CAP
1 4729_1 0.0010224
*RES
1 *4730:Y 4729_1 4.37143
2 4729_1 *4731:B 0
*END
*D_NET *4732 0.0008928
*CONN
*I *4733:Y O *D _886
*P *4732 I
*CAP
1 4732_1 0.0008928
*RES
1 *4733:Y 4732_1 3.675
2 4732_1 *4732 0
*END
*D_NET *4734 0.012456
*CONN
*I *4735:Y O *D _887
*P *4734 I
*CAP
1 4734_1 0.012456
*RES
1 *4735:Y 4734_1 62.1429
2 4734_1 *4734 0
*END
*D_NET *4736 0.0029808
*CONN
*I *4737:Y O *D _888
*P *4736 I
*CAP
1 4736_1 0.0029808
*RES
1 *4737:Y 4736_1 11.3357
2 4736_1 *4736 0
*END
*D_NET *4738 0.0013968
*CONN
*I *4739:Y O *D _889
*P *4738 I
*CAP
1 4738_1 0.0013968
*RES
1 *4739:Y 4738_1 5.83571
2 4738_1 *4738 0
*END
*D_NET *4740 0.000216
*CONN
*I *4741:Y O *D _890
*P *4740 I
*CAP
1 4740_1 0.000216
*RES
1 *4741:Y 4740_1 0.75
2 4740_1 *4740 0
*END
*D_NET *4742 0.0006048
*CONN
*I *4743:Y O *D _891
*P *4742 I
*CAP
1 4742_1 0.0006048
*RES
1 *4743:Y 4742_1 3.08571
2 4742_1 *4742 0
*END
*D_NET *4744 0.0011088
*CONN
*I *4745:Y O *D _904
*I *4746:B I *L 0
*CAP
1 4744_1 0.0011088
*RES
1 *4745:Y 4744_1 5.24643
2 4744_1 *4746:B 0
*END
*D_NET *4747 0.0009576
*CONN
*I *4748:Y O *D _907
*I *4749:A I *L 0
*CAP
1 4747_1 0.0009576
*RES
1 *4748:Y 4747_1 4.06429
2 4747_1 *4749:A 0
*END
*D_NET *4750 0.0007056
*CONN
*I *4751:Y O *D _910
*I *4752:C I *L 0
*CAP
1 4750_1 0.0007056
*RES
1 *4751:Y 4750_1 3.6
2 4750_1 *4752:C 0
*END
*D_NET *4753 0.001476
*CONN
*I *4754:Y O *D _912
*I *4755:C I *L 0
*CAP
1 4753_1 0.001476
*RES
1 *4754:Y 4753_1 6.35714
2 4753_1 *4755:C 0
*END
*D_NET *4756 0.0010152
*CONN
*I *4757:Y O *D _917
*I *4758:B I *L 0
*CAP
1 4756_1 0.0010152
*RES
1 *4757:Y 4756_1 4.18214
2 4756_1 *4758:B 0
*END
*D_NET *4759 0.000324
*CONN
*I *4760:Y O *D _918
*I *4761:B I *L 0
*CAP
1 4759_1 0.000324
*RES
1 *4760:Y 4759_1 1.125
2 4759_1 *4761:B 0
*END
*D_NET *4762 0.001836
*CONN
*I *4763:Y O *D _919
*I *4764:C I *L 0
*CAP
1 4762_1 0.001836
*RES
1 *4763:Y 4762_1 8.01786
2 4762_1 *4764:C 0
*END
*D_NET *4765 0.0011376
*CONN
*I *4766:Y O *D _920
*I *4767:A I *L 0
*CAP
1 4765_1 0.0011376
*RES
1 *4766:Y 4765_1 5.51071
2 4765_1 *4767:A 0
*END
*D_NET *4768 0.001296
*CONN
*I *4769:Y O *D _921
*I *4770:C I *L 0
*CAP
1 4768_1 0.001296
*RES
1 *4769:Y 4768_1 5.73214
2 4768_1 *4770:C 0
*END
*D_NET *4771 0.000288
*CONN
*I *4772:Y O *D _923
*I *4773:B I *L 0
*CAP
1 4771_1 0.000288
*RES
1 *4772:Y 4771_1 1
2 4771_1 *4773:B 0
*END
*D_NET *4774 0.0027864
*CONN
*I *4775:Y O *D _924
*I *4776:C I *L 0
*CAP
1 4774_1 0.0027864
*RES
1 *4775:Y 4774_1 11.8107
2 4774_1 *4776:C 0
*END
*D_NET *4777 0.000324
*CONN
*I *4778:Y O *D _926
*I *4779:B I *L 0
*CAP
1 4777_1 0.000324
*RES
1 *4778:Y 4777_1 1.125
2 4777_1 *4779:B 0
*END
*D_NET *4780 0.0019152
*CONN
*I *4781:Y O *D _928
*I *4782:C I *L 0
*CAP
1 4780_1 0.0019152
*RES
1 *4781:Y 4780_1 7.96429
2 4780_1 *4782:C 0
*END
*D_NET *4783 0.0004392
*CONN
*I *4784:Y O *D _934
*I *4785:A I *L 0
*CAP
1 4783_1 0.0004392
*RES
1 *4784:Y 4783_1 1.77143
2 4783_1 *4785:A 0
*END
*D_NET *4786 0.0014256
*CONN
*I *4787:Y O *D _935
*I *4788:B I *L 0
*CAP
1 4786_1 0.0014256
*RES
1 *4787:Y 4786_1 5.68929
2 4786_1 *4788:B 0
*END
*D_NET *4789 0.0040608
*CONN
*I *4790:Y O *D _936
*I *4791:C I *L 0
*CAP
1 4789_1 0.0040608
*RES
1 *4790:Y 4789_1 15.9071
2 4789_1 *4791:C 0
*END
*D_NET *4792 0.000468
*CONN
*I *4793:Y O *D _937
*I *4794:C I *L 0
*CAP
1 4792_1 0.000468
*RES
1 *4793:Y 4792_1 1.625
2 4792_1 *4794:C 0
*END
*D_NET *4795 0.0012528
*CONN
*I *4796:Y O *D _938
*I *4797:B I *L 0
*CAP
1 4795_1 0.0012528
*RES
1 *4796:Y 4795_1 5.74643
2 4795_1 *4797:B 0
*END
*D_NET *4798 0.0006624
*CONN
*I *4799:Y O *D _941
*I *4800:B I *L 0
*CAP
1 4798_1 0.0006624
*RES
1 *4799:Y 4798_1 2.79286
2 4798_1 *4800:B 0
*END
*D_NET *4801 0.0004392
*CONN
*I *4802:Y O *D _942
*I *4803:A I *L 0
*CAP
1 4801_1 0.0004392
*RES
1 *4802:Y 4801_1 1.77143
2 4801_1 *4803:A 0
*END
*D_NET *4804 0.0035064
*CONN
*I *4805:Y O *D _943
*I *4806:B I *L 0
*CAP
1 4804_1 0.0035064
*RES
1 *4805:Y 4804_1 13.0786
2 4804_1 *4806:B 0
*END
*D_NET *4807 0.0010152
*CONN
*I *4808:Y O *D _944
*I *4809:C I *L 0
*CAP
1 4807_1 0.0010152
*RES
1 *4808:Y 4807_1 4.18214
2 4807_1 *4809:C 0
*END
*D_NET *4810 0.0012168
*CONN
*I *4811:Y O *D _945
*I *4812:B I *L 0
*CAP
1 4810_1 0.0012168
*RES
1 *4811:Y 4810_1 5.62143
2 4810_1 *4812:B 0
*END
*D_NET *4813 0.0004752
*CONN
*I *4814:Y O *D _946
*I *4815:C I *L 0
*CAP
1 4813_1 0.0004752
*RES
1 *4814:Y 4813_1 1.89643
2 4813_1 *4815:C 0
*END
*D_NET *4816 0.000612
*CONN
*I *4817:Y O *D _948
*I *4818:A I *L 0
*CAP
1 4816_1 0.000612
*RES
1 *4817:Y 4816_1 2.125
2 4816_1 *4818:A 0
*END
*D_NET *4819 0.0004824
*CONN
*I *4820:Y O *D _949
*I *4821:A I *L 0
*CAP
1 4819_1 0.0004824
*RES
1 *4820:Y 4819_1 2.16786
2 4819_1 *4821:A 0
*END
*D_NET *4822 0.000324
*CONN
*I *4823:Y O *D _950
*I *4824:C I *L 0
*CAP
1 4822_1 0.000324
*RES
1 *4823:Y 4822_1 1.125
2 4822_1 *4824:C 0
*END
*D_NET *4825 0.0024696
*CONN
*I *4826:Y O *D _951
*I *4827:B I *L 0
*CAP
1 4825_1 0.0024696
*RES
1 *4826:Y 4825_1 10.9571
2 4825_1 *4827:B 0
*END
*D_NET *4828 0.0009936
*CONN
*I *4829:Y O *D _952
*I *4830:B I *L 0
*CAP
1 4828_1 0.0009936
*RES
1 *4829:Y 4828_1 3.94286
2 4828_1 *4830:B 0
*END
*D_NET *4831 0.0011016
*CONN
*I *4832:Y O *D _954
*I *4833:A I *L 0
*CAP
1 4831_1 0.0011016
*RES
1 *4832:Y 4831_1 5.38571
2 4831_1 *4833:A 0
*END
*D_NET *4834 0.0009792
*CONN
*I *4835:Y O *D _955
*I *4836:A I *L 0
*CAP
1 4834_1 0.0009792
*RES
1 *4835:Y 4834_1 4.46786
2 4834_1 *4836:A 0
*END
*D_NET *4837 0.0009936
*CONN
*I *4838:Y O *D _956
*I *4839:C I *L 0
*CAP
1 4837_1 0.0009936
*RES
1 *4838:Y 4837_1 3.94286
2 4837_1 *4839:C 0
*END
*D_NET *4840 0.0007992
*CONN
*I *4841:Y O *D _957
*I *4842:B I *L 0
*CAP
1 4840_1 0.0007992
*RES
1 *4841:Y 4840_1 3.02143
2 4840_1 *4842:B 0
*END
*D_NET *4843 0.0006264
*CONN
*I *4844:Y O *D _958
*I *4845:B I *L 0
*CAP
1 4843_1 0.0006264
*RES
1 *4844:Y 4843_1 2.66786
2 4843_1 *4845:B 0
*END
*D_NET *4846 0.00162
*CONN
*I *4847:Y O *D _960
*I *4848:A I *L 0
*CAP
1 4846_1 0.00162
*RES
1 *4847:Y 4846_1 6.85714
2 4846_1 *4848:A 0
*END
*D_NET *4849 0.0007056
*CONN
*I *4850:Y O *D _961
*I *4851:A I *L 0
*CAP
1 4849_1 0.0007056
*RES
1 *4850:Y 4849_1 2.86071
2 4849_1 *4851:A 0
*END
*D_NET *4852 0.000288
*CONN
*I *4853:Y O *D _962
*I *4854:C I *L 0
*CAP
1 4852_1 0.000288
*RES
1 *4853:Y 4852_1 1
2 4852_1 *4854:C 0
*END
*D_NET *4855 0.0010944
*CONN
*I *4856:Y O *D _963
*I *4857:B I *L 0
*CAP
1 4855_1 0.0010944
*RES
1 *4856:Y 4855_1 4.70357
2 4855_1 *4857:B 0
*END
*D_NET *4858 0.001728
*CONN
*I *4859:Y O *D _964
*I *4860:B I *L 0
*CAP
1 4858_1 0.001728
*RES
1 *4859:Y 4858_1 6.73929
2 4858_1 *4860:B 0
*END
*D_NET *4861 0.0012888
*CONN
*I *4862:Y O *D _966
*I *4863:B I *L 0
*CAP
1 4861_1 0.0012888
*RES
1 *4862:Y 4861_1 5.87143
2 4861_1 *4863:B 0
*END
*D_NET *4864 0.0013752
*CONN
*I *4865:Y O *D _967
*I *4866:A I *L 0
*CAP
1 4864_1 0.0013752
*RES
1 *4865:Y 4864_1 5.84286
2 4864_1 *4866:A 0
*END
*D_NET *4867 0.0047088
*CONN
*I *4868:Y O *D _968
*I *4869:B I *L 0
*CAP
1 4867_1 0.0047088
*RES
1 *4868:Y 4867_1 18.5679
2 4867_1 *4869:B 0
*END
*D_NET *4870 0.0010152
*CONN
*I *4871:Y O *D _969
*I *4872:C I *L 0
*CAP
1 4870_1 0.0010152
*RES
1 *4871:Y 4870_1 4.18214
2 4870_1 *4872:C 0
*END
*D_NET *4873 0.0014904
*CONN
*I *4874:Y O *D _970
*I *4875:B I *L 0
*CAP
1 4873_1 0.0014904
*RES
1 *4874:Y 4873_1 6.57143
2 4873_1 *4875:B 0
*END
*D_NET *4876 0.0004752
*CONN
*I *4877:Y O *D _971
*I *4878:C I *L 0
*CAP
1 4876_1 0.0004752
*RES
1 *4877:Y 4876_1 1.89643
2 4876_1 *4878:C 0
*END
*D_NET *4879 0.0011808
*CONN
*I *4880:Y O *D _973
*I *4881:B I *L 0
*CAP
1 4879_1 0.0011808
*RES
1 *4880:Y 4879_1 5.16786
2 4879_1 *4881:B 0
*END
*D_NET *4882 0.000252
*CONN
*I *4883:Y O *D _974
*I *4884:A I *L 0
*CAP
1 4882_1 0.000252
*RES
1 *4883:Y 4882_1 0.875
2 4882_1 *4884:A 0
*END
*D_NET *4885 0.0026496
*CONN
*I *4886:Y O *D _975
*I *4887:A I *L 0
*CAP
1 4885_1 0.0026496
*RES
1 *4886:Y 4885_1 11.6643
2 4885_1 *4887:A 0
*END
*D_NET *4888 0.0056448
*CONN
*I *4889:Y O *D _976
*I *4890:C I *L 0
*CAP
1 4888_1 0.0056448
*RES
1 *4889:Y 4888_1 21.7357
2 4888_1 *4890:C 0
*END
*D_NET *4891 0.0012096
*CONN
*I *4892:Y O *D _977
*I *4893:C I *L 0
*CAP
1 4891_1 0.0012096
*RES
1 *4892:Y 4891_1 5.35
2 4891_1 *4893:C 0
*END
*D_NET *4894 0.0030888
*CONN
*I *4895:Y O *D _978
*I *4896:D I *L 0
*CAP
1 4894_1 0.0030888
*RES
1 *4895:Y 4894_1 12.5321
2 4894_1 *4896:D 0
*END
*D_NET *4897 0.00108
*CONN
*I *4898:Y O *D _980
*I *4899:B I *L 0
*CAP
1 4897_1 0.00108
*RES
1 *4898:Y 4897_1 4.24286
2 4897_1 *4899:B 0
*END
*D_NET *4900 0.0025128
*CONN
*I *4901:Y O *D _981
*I *4902:B I *L 0
*CAP
1 4900_1 0.0025128
*RES
1 *4901:Y 4900_1 12.175
2 4900_1 *4902:B 0
*END
*D_NET *4903 0.0027072
*CONN
*I *4904:Y O *D _982
*I *4905:C I *L 0
*CAP
1 4903_1 0.0027072
*RES
1 *4904:Y 4903_1 10.8786
2 4903_1 *4905:C 0
*END
*D_NET *4906 0.001944
*CONN
*I *4907:Y O *D _983
*I *4908:A I *L 0
*CAP
1 4906_1 0.001944
*RES
1 *4907:Y 4906_1 7.98214
2 4906_1 *4908:A 0
*END
*D_NET *4909 0.00036
*CONN
*I *4910:Y O *D _984
*I *4911:B I *L 0
*CAP
1 4909_1 0.00036
*RES
1 *4910:Y 4909_1 1.25
2 4909_1 *4911:B 0
*END
*D_NET *4912 0.0011664
*CONN
*I *4913:Y O *D _985
*I *4914:C I *L 0
*CAP
1 4912_1 0.0011664
*RES
1 *4913:Y 4912_1 4.54286
2 4912_1 *4914:C 0
*END
*D_NET *4915 0.0016488
*CONN
*I *4916:Y O *D _986
*I *4917:B I *L 0
*CAP
1 4915_1 0.0016488
*RES
1 *4916:Y 4915_1 7.12143
2 4915_1 *4917:B 0
*END
*D_NET *4918 0.0005832
*CONN
*I *4919:Y O *D _987
*I *4920:A I *L 0
*CAP
1 4918_1 0.0005832
*RES
1 *4919:Y 4918_1 2.27143
2 4918_1 *4920:A 0
*END
*D_NET *4921 0.0008928
*CONN
*I *4922:Y O *D _989
*I *4923:A I *L 0
*CAP
1 4921_1 0.0008928
*RES
1 *4922:Y 4921_1 4.08571
2 4921_1 *4923:A 0
*END
*D_NET *4924 0.0008208
*CONN
*I *4925:Y O *D _991
*I *4926:C I *L 0
*CAP
1 4924_1 0.0008208
*RES
1 *4925:Y 4924_1 3.83571
2 4924_1 *4926:C 0
*END
*D_NET *4927 0.0014544
*CONN
*I *4928:Y O *D _993
*I *4929:B I *L 0
*CAP
1 4927_1 0.0014544
*RES
1 *4928:Y 4927_1 5.95357
2 4927_1 *4929:B 0
*END
*D_NET *4930 0.000504
*CONN
*I *4931:Y O *D _995
*I *4932:C I *L 0
*CAP
1 4930_1 0.000504
*RES
1 *4931:Y 4930_1 1.75
2 4930_1 *4932:C 0
*END
